lattice_vector 19.698380 0.000000 0.000000
lattice_vector 0.000000 8.918648 0.000000
lattice_vector 0.000000 0.000000 65.976178

atom_frac 0.333331 0.000000 0.371444 O
atom_frac 0.101852 0.166667 0.390796 O
atom_frac 0.166666 0.000000 0.390796 Ti
atom_frac 0.333332 0.166667 0.390796 Ti
atom_frac 0.231480 0.166667 0.390797 O
atom_frac 0.000000 0.000000 0.410148 O
atom_frac 0.166664 0.000000 0.421208 O
atom_frac 0.268518 0.166667 0.440560 O
atom_frac 0.333332 0.000000 0.440560 Ti
atom_frac 0.166665 0.166667 0.440560 Ti
atom_frac 0.064812 0.166667 0.440561 O
atom_frac 0.166666 0.000000 0.459912 O
atom_frac 0.333330 0.000000 0.470972 O
atom_frac 0.101850 0.166667 0.490324 O
atom_frac 0.166664 0.000000 0.490324 Ti
atom_frac 0.333331 0.166667 0.490324 Ti
atom_frac 0.231478 0.166667 0.490324 O
atom_frac 0.333332 0.000000 0.509676 O
atom_frac 0.166662 0.000000 0.520736 O
atom_frac 0.268516 0.166667 0.540088 O
atom_frac 0.333330 0.000000 0.540088 Ti
atom_frac 0.166663 0.166667 0.540088 Ti
atom_frac 0.064810 0.166667 0.540088 O
atom_frac 0.166664 0.000000 0.559440 O
atom_frac 0.333328 0.000000 0.570500 O
atom_frac 0.101848 0.166667 0.589851 O
atom_frac 0.166662 0.000000 0.589852 Ti
atom_frac 0.333329 0.166667 0.589852 Ti
atom_frac 0.231476 0.166667 0.589852 O
atom_frac 0.333330 0.000000 0.609204 O
atom_frac 0.166660 0.000000 0.620264 O
atom_frac 0.268514 0.166667 0.639615 O
atom_frac 0.333328 0.000000 0.639616 Ti
atom_frac 0.166661 0.166667 0.639616 Ti
atom_frac 0.064809 0.166667 0.639616 O
atom_frac 0.166662 0.000000 0.658968 O
atom_frac 0.333331 0.333333 0.371444 O
atom_frac 0.101852 0.500000 0.390796 O
atom_frac 0.166666 0.333333 0.390796 Ti
atom_frac 0.333332 0.500000 0.390796 Ti
atom_frac 0.231480 0.500000 0.390797 O
atom_frac 0.000000 0.333333 0.410148 O
atom_frac 0.166664 0.333333 0.421208 O
atom_frac 0.268518 0.500000 0.440560 O
atom_frac 0.333332 0.333333 0.440560 Ti
atom_frac 0.166665 0.500000 0.440560 Ti
atom_frac 0.064812 0.500000 0.440561 O
atom_frac 0.166666 0.333333 0.459912 O
atom_frac 0.333330 0.333333 0.470972 O
atom_frac 0.101850 0.500000 0.490324 O
atom_frac 0.166664 0.333333 0.490324 Ti
atom_frac 0.333331 0.500000 0.490324 Ti
atom_frac 0.231478 0.500000 0.490324 O
atom_frac 0.333332 0.333333 0.509676 O
atom_frac 0.166662 0.333333 0.520736 O
atom_frac 0.268516 0.500000 0.540088 O
atom_frac 0.333330 0.333333 0.540088 Ti
atom_frac 0.166663 0.500000 0.540088 Ti
atom_frac 0.064810 0.500000 0.540088 O
atom_frac 0.166664 0.333333 0.559440 O
atom_frac 0.333328 0.333333 0.570500 O
atom_frac 0.101848 0.500000 0.589851 O
atom_frac 0.166662 0.333333 0.589852 Ti
atom_frac 0.333329 0.500000 0.589852 Ti
atom_frac 0.231476 0.500000 0.589852 O
atom_frac 0.333330 0.333333 0.609204 O
atom_frac 0.166660 0.333333 0.620264 O
atom_frac 0.268514 0.500000 0.639615 O
atom_frac 0.333328 0.333333 0.639616 Ti
atom_frac 0.166661 0.500000 0.639616 Ti
atom_frac 0.064809 0.500000 0.639616 O
atom_frac 0.166662 0.333333 0.658968 O
atom_frac 0.333331 0.666667 0.371444 O
atom_frac 0.101852 0.833333 0.390796 O
atom_frac 0.166666 0.666667 0.390796 Ti
atom_frac 0.333332 0.833333 0.390796 Ti
atom_frac 0.231480 0.833333 0.390797 O
atom_frac 0.000000 0.666667 0.410148 O
atom_frac 0.166664 0.666667 0.421208 O
atom_frac 0.268518 0.833333 0.440560 O
atom_frac 0.333332 0.666667 0.440560 Ti
atom_frac 0.166665 0.833333 0.440560 Ti
atom_frac 0.064812 0.833333 0.440561 O
atom_frac 0.166666 0.666667 0.459912 O
atom_frac 0.333330 0.666667 0.470972 O
atom_frac 0.101850 0.833333 0.490324 O
atom_frac 0.166664 0.666667 0.490324 Ti
atom_frac 0.333331 0.833333 0.490324 Ti
atom_frac 0.231478 0.833333 0.490324 O
atom_frac 0.333332 0.666667 0.509676 O
atom_frac 0.166662 0.666667 0.520736 O
atom_frac 0.268516 0.833333 0.540088 O
atom_frac 0.333330 0.666667 0.540088 Ti
atom_frac 0.166663 0.833333 0.540088 Ti
atom_frac 0.064810 0.833333 0.540088 O
atom_frac 0.166664 0.666667 0.559440 O
atom_frac 0.333328 0.666667 0.570500 O
atom_frac 0.101848 0.833333 0.589851 O
atom_frac 0.166662 0.666667 0.589852 Ti
atom_frac 0.333329 0.833333 0.589852 Ti
atom_frac 0.231476 0.833333 0.589852 O
atom_frac 0.333330 0.666667 0.609204 O
atom_frac 0.166660 0.666667 0.620264 O
atom_frac 0.268514 0.833333 0.639615 O
atom_frac 0.333328 0.666667 0.639616 Ti
atom_frac 0.166661 0.833333 0.639616 Ti
atom_frac 0.064809 0.833333 0.639616 O
atom_frac 0.166662 0.666667 0.658968 O
atom_frac 0.666665 0.000000 0.371444 O
atom_frac 0.435185 0.166667 0.390796 O
atom_frac 0.499999 0.000000 0.390796 Ti
atom_frac 0.666666 0.166667 0.390796 Ti
atom_frac 0.564813 0.166667 0.390797 O
atom_frac 0.333334 0.000000 0.410148 O
atom_frac 0.499997 0.000000 0.421208 O
atom_frac 0.601851 0.166667 0.440560 O
atom_frac 0.666665 0.000000 0.440560 Ti
atom_frac 0.499998 0.166667 0.440560 Ti
atom_frac 0.398145 0.166667 0.440561 O
atom_frac 0.499999 0.000000 0.459912 O
atom_frac 0.666663 0.000000 0.470972 O
atom_frac 0.435183 0.166667 0.490324 O
atom_frac 0.499997 0.000000 0.490324 Ti
atom_frac 0.666664 0.166667 0.490324 Ti
atom_frac 0.564811 0.166667 0.490324 O
atom_frac 0.666665 0.000000 0.509676 O
atom_frac 0.499995 0.000000 0.520736 O
atom_frac 0.601849 0.166667 0.540088 O
atom_frac 0.666663 0.000000 0.540088 Ti
atom_frac 0.499996 0.166667 0.540088 Ti
atom_frac 0.398144 0.166667 0.540088 O
atom_frac 0.499998 0.000000 0.559440 O
atom_frac 0.666661 0.000000 0.570500 O
atom_frac 0.435182 0.166667 0.589851 O
atom_frac 0.499996 0.000000 0.589852 Ti
atom_frac 0.666662 0.166667 0.589852 Ti
atom_frac 0.564809 0.166667 0.589852 O
atom_frac 0.666663 0.000000 0.609204 O
atom_frac 0.499993 0.000000 0.620264 O
atom_frac 0.601847 0.166667 0.639615 O
atom_frac 0.666661 0.000000 0.639616 Ti
atom_frac 0.499995 0.166667 0.639616 Ti
atom_frac 0.398142 0.166667 0.639616 O
atom_frac 0.499996 0.000000 0.658968 O
atom_frac 0.666665 0.333333 0.371444 O
atom_frac 0.435185 0.500000 0.390796 O
atom_frac 0.499999 0.333333 0.390796 Ti
atom_frac 0.666666 0.500000 0.390796 Ti
atom_frac 0.564813 0.500000 0.390797 O
atom_frac 0.333334 0.333333 0.410148 O
atom_frac 0.499997 0.333333 0.421208 O
atom_frac 0.601851 0.500000 0.440560 O
atom_frac 0.666665 0.333333 0.440560 Ti
atom_frac 0.499998 0.500000 0.440560 Ti
atom_frac 0.398145 0.500000 0.440561 O
atom_frac 0.499999 0.333333 0.459912 O
atom_frac 0.666663 0.333333 0.470972 O
atom_frac 0.435183 0.500000 0.490324 O
atom_frac 0.499997 0.333333 0.490324 Ti
atom_frac 0.666664 0.500000 0.490324 Ti
atom_frac 0.564811 0.500000 0.490324 O
atom_frac 0.666665 0.333333 0.509676 F
atom_frac 0.499995 0.333333 0.520736 O
atom_frac 0.601849 0.500000 0.540088 O
atom_frac 0.666663 0.333333 0.540088 Ti
atom_frac 0.499996 0.500000 0.540088 Ti
atom_frac 0.398144 0.500000 0.540088 O
atom_frac 0.499998 0.333333 0.559440 O
atom_frac 0.666661 0.333333 0.570500 O
atom_frac 0.435182 0.500000 0.589851 O
atom_frac 0.499996 0.333333 0.589852 Ti
atom_frac 0.666662 0.500000 0.589852 Ti
atom_frac 0.564809 0.500000 0.589852 O
atom_frac 0.666663 0.333333 0.609204 O
atom_frac 0.499993 0.333333 0.620264 O
atom_frac 0.601847 0.500000 0.639615 O
atom_frac 0.666661 0.333333 0.639616 Ti
atom_frac 0.499995 0.500000 0.639616 Ti
atom_frac 0.398142 0.500000 0.639616 O
atom_frac 0.499996 0.333333 0.658968 O
atom_frac 0.666665 0.666667 0.371444 O
atom_frac 0.435185 0.833333 0.390796 O
atom_frac 0.499999 0.666667 0.390796 Ti
atom_frac 0.666666 0.833333 0.390796 Ti
atom_frac 0.564813 0.833333 0.390797 O
atom_frac 0.333334 0.666667 0.410148 O
atom_frac 0.499997 0.666667 0.421208 O
atom_frac 0.601851 0.833333 0.440560 O
atom_frac 0.666665 0.666667 0.440560 Ti
atom_frac 0.499998 0.833333 0.440560 Ti
atom_frac 0.398145 0.833333 0.440561 O
atom_frac 0.499999 0.666667 0.459912 O
atom_frac 0.666663 0.666667 0.470972 O
atom_frac 0.435183 0.833333 0.490324 O
atom_frac 0.499997 0.666667 0.490324 Ti
atom_frac 0.666664 0.833333 0.490324 Ti
atom_frac 0.564811 0.833333 0.490324 O
atom_frac 0.666665 0.666667 0.509676 O
atom_frac 0.499995 0.666667 0.520736 O
atom_frac 0.601849 0.833333 0.540088 O
atom_frac 0.666663 0.666667 0.540088 Ti
atom_frac 0.499996 0.833333 0.540088 Ti
atom_frac 0.398144 0.833333 0.540088 O
atom_frac 0.499998 0.666667 0.559440 O
atom_frac 0.666661 0.666667 0.570500 O
atom_frac 0.435182 0.833333 0.589851 O
atom_frac 0.499996 0.666667 0.589852 Ti
atom_frac 0.666662 0.833333 0.589852 Ti
atom_frac 0.564809 0.833333 0.589852 O
atom_frac 0.666663 0.666667 0.609204 O
atom_frac 0.499993 0.666667 0.620264 O
atom_frac 0.601847 0.833333 0.639615 O
atom_frac 0.666661 0.666667 0.639616 Ti
atom_frac 0.499995 0.833333 0.639616 Ti
atom_frac 0.398142 0.833333 0.639616 O
atom_frac 0.499996 0.666667 0.658968 O
atom_frac 0.999998 0.000000 0.371444 O
atom_frac 0.768519 0.166667 0.390796 O
atom_frac 0.833332 0.000000 0.390796 Ti
atom_frac 0.999999 0.166667 0.390796 Ti
atom_frac 0.898146 0.166667 0.390797 O
atom_frac 0.666667 0.000000 0.410148 O
atom_frac 0.833330 0.000000 0.421208 O
atom_frac 0.935184 0.166667 0.440560 O
atom_frac 0.999998 0.000000 0.440560 Ti
atom_frac 0.833332 0.166667 0.440560 Ti
atom_frac 0.731479 0.166667 0.440561 O
atom_frac 0.833333 0.000000 0.459912 O
atom_frac 0.999996 0.000000 0.470972 O
atom_frac 0.768517 0.166667 0.490324 O
atom_frac 0.833331 0.000000 0.490324 Ti
atom_frac 0.999997 0.166667 0.490324 Ti
atom_frac 0.898145 0.166667 0.490324 O
atom_frac 0.999998 0.000000 0.509676 O
atom_frac 0.833329 0.000000 0.520736 O
atom_frac 0.935183 0.166667 0.540088 O
atom_frac 0.999996 0.000000 0.540088 Ti
atom_frac 0.833330 0.166667 0.540088 Ti
atom_frac 0.731477 0.166667 0.540088 O
atom_frac 0.833331 0.000000 0.559440 O
atom_frac 0.999994 0.000000 0.570500 O
atom_frac 0.768515 0.166667 0.589851 O
atom_frac 0.833329 0.000000 0.589852 Ti
atom_frac 0.999996 0.166667 0.589852 Ti
atom_frac 0.898143 0.166667 0.589852 O
atom_frac 0.999997 0.000000 0.609204 O
atom_frac 0.833327 0.000000 0.620264 O
atom_frac 0.935181 0.166667 0.639615 O
atom_frac 0.999995 0.000000 0.639616 Ti
atom_frac 0.833328 0.166667 0.639616 Ti
atom_frac 0.731475 0.166667 0.639616 O
atom_frac 0.833329 0.000000 0.658968 O
atom_frac 0.999998 0.333333 0.371444 O
atom_frac 0.768519 0.500000 0.390796 O
atom_frac 0.833332 0.333333 0.390796 Ti
atom_frac 0.999999 0.500000 0.390796 Ti
atom_frac 0.898146 0.500000 0.390797 O
atom_frac 0.666667 0.333333 0.410148 O
atom_frac 0.833330 0.333333 0.421208 O
atom_frac 0.935184 0.500000 0.440560 O
atom_frac 0.999998 0.333333 0.440560 Ti
atom_frac 0.833332 0.500000 0.440560 Ti
atom_frac 0.731479 0.500000 0.440561 O
atom_frac 0.833333 0.333333 0.459912 O
atom_frac 0.999996 0.333333 0.470972 O
atom_frac 0.768517 0.500000 0.490324 O
atom_frac 0.833331 0.333333 0.490324 Ti
atom_frac 0.999997 0.500000 0.490324 Ti
atom_frac 0.898145 0.500000 0.490324 O
atom_frac 0.999998 0.333333 0.509676 O
atom_frac 0.833329 0.333333 0.520736 O
atom_frac 0.935183 0.500000 0.540088 O
atom_frac 0.999996 0.333333 0.540088 Ti
atom_frac 0.833330 0.500000 0.540088 Ti
atom_frac 0.731477 0.500000 0.540088 O
atom_frac 0.833331 0.333333 0.559440 O
atom_frac 0.999994 0.333333 0.570500 O
atom_frac 0.768515 0.500000 0.589851 O
atom_frac 0.833329 0.333333 0.589852 Ti
atom_frac 0.999996 0.500000 0.589852 Ti
atom_frac 0.898143 0.500000 0.589852 O
atom_frac 0.999997 0.333333 0.609204 O
atom_frac 0.833327 0.333333 0.620264 O
atom_frac 0.935181 0.500000 0.639615 O
atom_frac 0.999995 0.333333 0.639616 Ti
atom_frac 0.833328 0.500000 0.639616 Ti
atom_frac 0.731475 0.500000 0.639616 O
atom_frac 0.833329 0.333333 0.658968 O
atom_frac 0.999998 0.666667 0.371444 O
atom_frac 0.768519 0.833333 0.390796 O
atom_frac 0.833332 0.666667 0.390796 Ti
atom_frac 0.999999 0.833333 0.390796 Ti
atom_frac 0.898146 0.833333 0.390797 O
atom_frac 0.666667 0.666667 0.410148 O
atom_frac 0.833330 0.666667 0.421208 O
atom_frac 0.935184 0.833333 0.440560 O
atom_frac 0.999998 0.666667 0.440560 Ti
atom_frac 0.833332 0.833333 0.440560 Ti
atom_frac 0.731479 0.833333 0.440561 O
atom_frac 0.833333 0.666667 0.459912 O
atom_frac 0.999996 0.666667 0.470972 O
atom_frac 0.768517 0.833333 0.490324 O
atom_frac 0.833331 0.666667 0.490324 Ti
atom_frac 0.999997 0.833333 0.490324 Ti
atom_frac 0.898145 0.833333 0.490324 O
atom_frac 0.999998 0.666667 0.509676 O
atom_frac 0.833329 0.666667 0.520736 O
atom_frac 0.935183 0.833333 0.540088 O
atom_frac 0.999996 0.666667 0.540088 Ti
atom_frac 0.833330 0.833333 0.540088 Ti
atom_frac 0.731477 0.833333 0.540088 O
atom_frac 0.833331 0.666667 0.559440 O
atom_frac 0.999994 0.666667 0.570500 O
atom_frac 0.768515 0.833333 0.589851 O
atom_frac 0.833329 0.666667 0.589852 Ti
atom_frac 0.999996 0.833333 0.589852 Ti
atom_frac 0.898143 0.833333 0.589852 O
atom_frac 0.999997 0.666667 0.609204 O
atom_frac 0.833327 0.666667 0.620264 O
atom_frac 0.935181 0.833333 0.639615 O
atom_frac 0.999995 0.666667 0.639616 Ti
atom_frac 0.833328 0.833333 0.639616 Ti
atom_frac 0.731475 0.833333 0.639616 O
atom_frac 0.833329 0.666667 0.658968 O
