# 
# This is the geometry file that corresponds to the current relaxation step.
# If you do not want this file to be written, set the "write_restart_geometry" flag to .false.
#  aims_uuid : 7937C617-EA6C-4AEA-A236-E38D5424EB8D                                
# 
lattice_vector      4.61129028     -0.00016483     -0.00000000
lattice_vector     -0.00016481      4.61129163     -0.00000000
lattice_vector     -0.00000000      0.00000000      2.95863804
atom_frac      -0.00000001      0.00000001      0.00000011 Ti
atom_frac       0.50000000      0.50000000      0.49999997 Ti
atom_frac       0.30537754      0.30537765     -0.00000002 O
atom_frac       0.69462246      0.69462235     -0.00000002 O
atom_frac       0.19461865      0.80538146      0.49999998 O
atom_frac       0.80538136      0.19461853      0.49999998 O
# 
# What follows is the current estimated Hessian matrix constructed by the BFGS algorithm.
# This is NOT the true Hessian matrix of the system.
# If you do not want this information here, switch it off using the "hessian_to_restart_geometry" keyword.
# 
trust_radius             0.0118571873
hessian_file
