lattice_vector 6.566127 0.000000 0.000000
lattice_vector 0.000000 5.945765 0.000000
lattice_vector 0.000000 0.000000 66.705880

atom 6.566086 0.000000 24.506468 O
atom 2.006317 1.486441 25.783206 O
atom 3.283046 0.000000 25.783235 Ti
atom 6.566109 1.486441 25.783235 Ti
atom 4.559775 1.486441 25.783265 O
atom 0.000005 0.000000 27.060002 O
atom 3.283006 0.000000 27.789704 O
atom 5.289362 1.486441 29.066441 O
atom 6.566091 0.000000 29.066471 Ti
atom 3.283028 1.486441 29.066471 Ti
atom 1.276694 1.486441 29.066500 O
atom 3.283051 0.000000 30.343237 O
atom 6.566051 0.000000 31.072939 O
atom 2.006281 1.486441 32.349676 O
atom 3.283010 0.000000 32.349706 Ti
atom 6.566074 1.486441 32.349706 Ti
atom 4.559740 1.486441 32.349735 O
atom 6.566096 0.000000 33.626473 O
atom 3.282970 0.000000 34.356174 O
atom 5.289327 1.486441 35.632912 O
atom 6.566056 0.000000 35.632941 Ti
atom 3.282993 1.486441 35.632941 Ti
atom 1.276659 1.486441 35.632970 O
atom 3.283015 0.000000 36.909708 O
atom 6.566016 0.000000 37.639409 O
atom 2.006246 1.486441 38.916147 O
atom 3.282975 0.000000 38.916176 Ti
atom 6.566039 1.486441 38.916176 Ti
atom 4.559704 1.486441 38.916206 O
atom 6.566061 0.000000 40.192943 O
atom 3.282935 0.000000 40.922645 O
atom 5.289292 1.486441 42.199382 O
atom 6.566021 0.000000 42.199412 Ti
atom 3.282958 1.486441 42.199412 Ti
atom 1.276623 1.486441 42.199441 O
atom 3.282980 0.000000 43.476178 O
atom 6.566086 2.972883 24.506468 O
atom 2.006317 4.459324 25.783206 O
atom 3.283046 2.972883 25.783235 Ti
atom 6.566109 4.459324 25.783235 Ti
atom 4.559775 4.459324 25.783265 O
atom 0.000005 2.972883 27.060002 O
atom 3.283006 2.972883 27.789704 O
atom 5.289362 4.459324 29.066441 O
atom 6.566091 2.972883 29.066471 Ti
atom 3.283028 4.459324 29.066471 Ti
atom 1.276694 4.459324 29.066500 O
atom 3.283051 2.972883 30.343237 O
atom 6.566051 2.972883 31.072939 O
atom 2.006281 4.459324 32.349676 O
atom 3.283010 2.972883 32.349706 Ti
atom 6.566074 4.459324 32.349706 Ti
atom 4.559740 4.459324 32.349735 O
atom 6.566096 2.972883 33.626473 O
atom 3.282970 2.972883 34.356174 O
atom 5.289327 4.459324 35.632912 O
atom 6.566056 2.972883 35.632941 Ti
atom 3.282993 4.459324 35.632941 Ti
atom 1.276659 4.459324 35.632970 O
atom 3.283015 2.972883 36.909708 O
atom 6.566016 2.972883 37.639409 O
atom 2.006246 4.459324 38.916147 O
atom 3.282975 2.972883 38.916176 Ti
atom 6.566039 4.459324 38.916176 Ti
atom 4.559704 4.459324 38.916206 O
atom 6.566061 2.972883 40.192943 O
atom 3.282935 2.972883 40.922645 O
atom 5.289292 4.459324 42.199382 O
atom 6.566021 2.972883 42.199412 Ti
atom 3.282958 4.459324 42.199412 Ti
atom 1.276623 4.459324 42.199441 O
atom 3.282980 2.972883 43.476178 O
