# 
# This is the geometry file that corresponds to the current relaxation step.
# If you do not want this file to be written, set the "write_restart_geometry" flag to .false.
#  aims_uuid : 5E4BED05-D9AC-407E-AE90-09F20353C6AE                                
# 
lattice_vector      4.63675790      0.00014228     -0.00000000
lattice_vector      0.00014252      4.63678780     -0.00000000
lattice_vector     -0.00000000     -0.00000000      2.98843860
atom_frac      -0.00000001      0.00000000     -0.00004036 Ti
atom_frac       0.50000000      0.50000000      0.50000861 Ti
atom_frac       0.30397813      0.30398788      0.00000703 O
atom_frac       0.69602187      0.69601212      0.00000703 O
atom_frac       0.19600819      0.80400157      0.50000885 O
atom_frac       0.80399181      0.19599842      0.50000885 O
# 
# What follows is the current estimated Hessian matrix constructed by the BFGS algorithm.
# This is NOT the true Hessian matrix of the system.
# If you do not want this information here, switch it off using the "hessian_to_restart_geometry" keyword.
# 
trust_radius             0.0009118760
hessian_file
