lattice_vector 26.264506 0.000000 0.000000
lattice_vector 0.000000 11.891531 0.000000
lattice_vector 0.000000 0.000000 84.989115

atom 26.264506 0.000000 30.000000 Ti
atom 3.283063 1.486441 30.000000 Ti
atom 1.276729 1.486441 30.000029 O
atom 3.283086 0.000000 31.276767 O
atom 6.566086 0.000000 32.006468 O
atom 2.006317 1.486441 33.283206 O
atom 3.283046 0.000000 33.283235 Ti
atom 6.566109 1.486441 33.283235 Ti
atom 4.559775 1.486441 33.283265 O
atom 0.000005 0.000000 34.560002 O
atom 3.283006 0.000000 35.289704 O
atom 5.289362 1.486441 36.566441 O
atom 6.566091 0.000000 36.566471 Ti
atom 3.283028 1.486441 36.566471 Ti
atom 1.276694 1.486441 36.566500 O
atom 3.283051 0.000000 37.843237 O
atom 6.566051 0.000000 38.572939 O
atom 2.006281 1.486441 39.849676 O
atom 3.283010 0.000000 39.849706 Ti
atom 6.566074 1.486441 39.849706 Ti
atom 4.559740 1.486441 39.849735 O
atom 6.566096 0.000000 41.126473 O
atom 3.282970 0.000000 41.856174 O
atom 5.289327 1.486441 43.132912 O
atom 6.566056 0.000000 43.132941 Ti
atom 3.282993 1.486441 43.132941 Ti
atom 1.276659 1.486441 43.132970 O
atom 3.283015 0.000000 44.409708 O
atom 6.566016 0.000000 45.139409 O
atom 2.006246 1.486441 46.416147 O
atom 3.282975 0.000000 46.416176 Ti
atom 6.566039 1.486441 46.416176 Ti
atom 4.559704 1.486441 46.416206 O
atom 6.566061 0.000000 47.692943 O
atom 3.282935 0.000000 48.422645 O
atom 5.289292 1.486441 49.699382 O
atom 6.566021 0.000000 49.699412 Ti
atom 3.282958 1.486441 49.699412 Ti
atom 1.276623 1.486441 49.699441 O
atom 3.282980 0.000000 50.976178 O
atom 6.565981 0.000000 51.705880 O
atom 2.006211 1.486441 52.982617 O
atom 3.282940 0.000000 52.982647 Ti
atom 6.566003 1.486441 52.982647 Ti
atom 4.559669 1.486441 52.982676 O
atom 6.566026 0.000000 54.259414 O
atom 3.282900 0.000000 54.989115 O
atom 26.264506 2.972883 30.000000 Ti
atom 3.283063 4.459324 30.000000 Ti
atom 1.276729 4.459324 30.000029 O
atom 3.283086 2.972883 31.276767 O
atom 6.566086 2.972883 32.006468 O
atom 2.006317 4.459324 33.283206 O
atom 3.283046 2.972883 33.283235 Ti
atom 6.566109 4.459324 33.283235 Ti
atom 4.559775 4.459324 33.283265 O
atom 0.000005 2.972883 34.560002 O
atom 3.283006 2.972883 35.289704 O
atom 5.289362 4.459324 36.566441 O
atom 6.566091 2.972883 36.566471 Ti
atom 3.283028 4.459324 36.566471 Ti
atom 1.276694 4.459324 36.566500 O
atom 3.283051 2.972883 37.843237 O
atom 6.566051 2.972883 38.572939 O
atom 2.006281 4.459324 39.849676 O
atom 3.283010 2.972883 39.849706 Ti
atom 6.566074 4.459324 39.849706 Ti
atom 4.559740 4.459324 39.849735 O
atom 6.566096 2.972883 41.126473 O
atom 3.282970 2.972883 41.856174 O
atom 5.289327 4.459324 43.132912 O
atom 6.566056 2.972883 43.132941 Ti
atom 3.282993 4.459324 43.132941 Ti
atom 1.276659 4.459324 43.132970 O
atom 3.283015 2.972883 44.409708 O
atom 6.566016 2.972883 45.139409 O
atom 2.006246 4.459324 46.416147 O
atom 3.282975 2.972883 46.416176 Ti
atom 6.566039 4.459324 46.416176 Ti
atom 4.559704 4.459324 46.416206 O
atom 6.566061 2.972883 47.692943 O
atom 3.282935 2.972883 48.422645 O
atom 5.289292 4.459324 49.699382 O
atom 6.566021 2.972883 49.699412 Ti
atom 3.282958 4.459324 49.699412 Ti
atom 1.276623 4.459324 49.699441 O
atom 3.282980 2.972883 50.976178 O
atom 6.565981 2.972883 51.705880 O
atom 2.006211 4.459324 52.982617 O
atom 3.282940 2.972883 52.982647 Ti
atom 6.566003 4.459324 52.982647 Ti
atom 4.559669 4.459324 52.982676 O
atom 6.566026 2.972883 54.259414 O
atom 3.282900 2.972883 54.989115 O
atom 26.264506 5.945765 30.000000 Ti
atom 3.283063 7.432207 30.000000 Ti
atom 1.276729 7.432207 30.000029 O
atom 3.283086 5.945765 31.276767 O
atom 6.566086 5.945765 32.006468 O
atom 2.006317 7.432207 33.283206 O
atom 3.283046 5.945765 33.283235 Ti
atom 6.566109 7.432207 33.283235 Ti
atom 4.559775 7.432207 33.283265 O
atom 0.000005 5.945765 34.560002 O
atom 3.283006 5.945765 35.289704 O
atom 5.289362 7.432207 36.566441 O
atom 6.566091 5.945765 36.566471 Ti
atom 3.283028 7.432207 36.566471 Ti
atom 1.276694 7.432207 36.566500 O
atom 3.283051 5.945765 37.843237 O
atom 6.566051 5.945765 38.572939 O
atom 2.006281 7.432207 39.849676 O
atom 3.283010 5.945765 39.849706 Ti
atom 6.566074 7.432207 39.849706 Ti
atom 4.559740 7.432207 39.849735 O
atom 6.566096 5.945765 41.126473 O
atom 3.282970 5.945765 41.856174 O
atom 5.289327 7.432207 43.132912 O
atom 6.566056 5.945765 43.132941 Ti
atom 3.282993 7.432207 43.132941 Ti
atom 1.276659 7.432207 43.132970 O
atom 3.283015 5.945765 44.409708 O
atom 6.566016 5.945765 45.139409 O
atom 2.006246 7.432207 46.416147 O
atom 3.282975 5.945765 46.416176 Ti
atom 6.566039 7.432207 46.416176 Ti
atom 4.559704 7.432207 46.416206 O
atom 6.566061 5.945765 47.692943 O
atom 3.282935 5.945765 48.422645 O
atom 5.289292 7.432207 49.699382 O
atom 6.566021 5.945765 49.699412 Ti
atom 3.282958 7.432207 49.699412 Ti
atom 1.276623 7.432207 49.699441 O
atom 3.282980 5.945765 50.976178 O
atom 6.565981 5.945765 51.705880 O
atom 2.006211 7.432207 52.982617 O
atom 3.282940 5.945765 52.982647 Ti
atom 6.566003 7.432207 52.982647 Ti
atom 4.559669 7.432207 52.982676 O
atom 6.566026 5.945765 54.259414 O
atom 3.282900 5.945765 54.989115 O
atom 26.264506 8.918648 30.000000 Ti
atom 3.283063 10.405089 30.000000 Ti
atom 1.276729 10.405089 30.000029 O
atom 3.283086 8.918648 31.276767 O
atom 6.566086 8.918648 32.006468 O
atom 2.006317 10.405089 33.283206 O
atom 3.283046 8.918648 33.283235 Ti
atom 6.566109 10.405089 33.283235 Ti
atom 4.559775 10.405089 33.283265 O
atom 0.000005 8.918648 34.560002 O
atom 3.283006 8.918648 35.289704 O
atom 5.289362 10.405089 36.566441 O
atom 6.566091 8.918648 36.566471 Ti
atom 3.283028 10.405089 36.566471 Ti
atom 1.276694 10.405089 36.566500 O
atom 3.283051 8.918648 37.843237 O
atom 6.566051 8.918648 38.572939 O
atom 2.006281 10.405089 39.849676 O
atom 3.283010 8.918648 39.849706 Ti
atom 6.566074 10.405089 39.849706 Ti
atom 4.559740 10.405089 39.849735 O
atom 6.566096 8.918648 41.126473 O
atom 3.282970 8.918648 41.856174 O
atom 5.289327 10.405089 43.132912 O
atom 6.566056 8.918648 43.132941 Ti
atom 3.282993 10.405089 43.132941 Ti
atom 1.276659 10.405089 43.132970 O
atom 3.283015 8.918648 44.409708 O
atom 6.566016 8.918648 45.139409 O
atom 2.006246 10.405089 46.416147 O
atom 3.282975 8.918648 46.416176 Ti
atom 6.566039 10.405089 46.416176 Ti
atom 4.559704 10.405089 46.416206 O
atom 6.566061 8.918648 47.692943 O
atom 3.282935 8.918648 48.422645 O
atom 5.289292 10.405089 49.699382 O
atom 6.566021 8.918648 49.699412 Ti
atom 3.282958 10.405089 49.699412 Ti
atom 1.276623 10.405089 49.699441 O
atom 3.282980 8.918648 50.976178 O
atom 6.565981 8.918648 51.705880 O
atom 2.006211 10.405089 52.982617 O
atom 3.282940 8.918648 52.982647 Ti
atom 6.566003 10.405089 52.982647 Ti
atom 4.559669 10.405089 52.982676 O
atom 6.566026 8.918648 54.259414 O
atom 3.282900 8.918648 54.989115 O
atom 6.566126 0.000000 30.000000 Ti
atom 9.849190 1.486441 30.000000 Ti
atom 7.842856 1.486441 30.000029 O
atom 9.849212 0.000000 31.276767 O
atom 13.132213 0.000000 32.006468 O
atom 8.572443 1.486441 33.283206 O
atom 9.849172 0.000000 33.283235 Ti
atom 13.132235 1.486441 33.283235 Ti
atom 11.125901 1.486441 33.283265 O
atom 6.566131 0.000000 34.560002 O
atom 9.849132 0.000000 35.289704 O
atom 11.855489 1.486441 36.566441 O
atom 13.132218 0.000000 36.566471 Ti
atom 9.849155 1.486441 36.566471 Ti
atom 7.842820 1.486441 36.566500 O
atom 9.849177 0.000000 37.843237 O
atom 13.132178 0.000000 38.572939 O
atom 8.572408 1.486441 39.849676 O
atom 9.849137 0.000000 39.849706 Ti
atom 13.132200 1.486441 39.849706 Ti
atom 11.125866 1.486441 39.849735 O
atom 13.132223 0.000000 41.126473 O
atom 9.849097 0.000000 41.856174 O
atom 11.855454 1.486441 43.132912 O
atom 13.132183 0.000000 43.132941 Ti
atom 9.849119 1.486441 43.132941 Ti
atom 7.842785 1.486441 43.132970 O
atom 9.849142 0.000000 44.409708 O
atom 13.132143 0.000000 45.139409 O
atom 8.572373 1.486441 46.416147 O
atom 9.849102 0.000000 46.416176 Ti
atom 13.132165 1.486441 46.416176 Ti
atom 11.125831 1.486441 46.416206 O
atom 13.132188 0.000000 47.692943 O
atom 9.849062 0.000000 48.422645 O
atom 11.855418 1.486441 49.699382 O
atom 13.132147 0.000000 49.699412 Ti
atom 9.849084 1.486441 49.699412 Ti
atom 7.842750 1.486441 49.699441 O
atom 9.849107 0.000000 50.976178 O
atom 13.132107 0.000000 51.705880 O
atom 8.572338 1.486441 52.982617 O
atom 9.849067 0.000000 52.982647 Ti
atom 13.132130 1.486441 52.982647 Ti
atom 11.125796 1.486441 52.982676 O
atom 13.132152 0.000000 54.259414 O
atom 9.849026 0.000000 54.989115 O
atom 6.566126 2.972883 30.000000 Ti
atom 9.849190 4.459324 30.000000 Ti
atom 7.842856 4.459324 30.000029 O
atom 9.849212 2.972883 31.276767 O
atom 13.132213 2.972883 32.006468 O
atom 8.572443 4.459324 33.283206 O
atom 9.849172 2.972883 33.283235 Ti
atom 13.132235 4.459324 33.283235 Ti
atom 11.125901 4.459324 33.283265 O
atom 6.566131 2.972883 34.560002 O
atom 9.849132 2.972883 35.289704 O
atom 11.855489 4.459324 36.566441 O
atom 13.132218 2.972883 36.566471 Ti
atom 9.849155 4.459324 36.566471 Ti
atom 7.842820 4.459324 36.566500 O
atom 9.849177 2.972883 37.843237 O
atom 13.132178 2.972883 38.572939 O
atom 8.572408 4.459324 39.849676 O
atom 9.849137 2.972883 39.849706 Ti
atom 13.132200 4.459324 39.849706 Ti
atom 11.125866 4.459324 39.849735 O
atom 13.132223 2.972883 41.126473 O
atom 9.849097 2.972883 41.856174 O
atom 11.855454 4.459324 43.132912 O
atom 13.132183 2.972883 43.132941 Ti
atom 9.849119 4.459324 43.132941 Ti
atom 7.842785 4.459324 43.132970 O
atom 9.849142 2.972883 44.409708 O
atom 13.132143 2.972883 45.139409 O
atom 8.572373 4.459324 46.416147 O
atom 9.849102 2.972883 46.416176 Ti
atom 13.132165 4.459324 46.416176 Ti
atom 11.125831 4.459324 46.416206 O
atom 13.132188 2.972883 47.692943 O
atom 9.849062 2.972883 48.422645 O
atom 11.855418 4.459324 49.699382 O
atom 13.132147 2.972883 49.699412 Ti
atom 9.849084 4.459324 49.699412 Ti
atom 7.842750 4.459324 49.699441 O
atom 9.849107 2.972883 50.976178 O
atom 13.132107 2.972883 51.705880 O
atom 8.572338 4.459324 52.982617 O
atom 9.849067 2.972883 52.982647 Ti
atom 13.132130 4.459324 52.982647 Ti
atom 11.125796 4.459324 52.982676 O
atom 13.132152 2.972883 54.259414 O
atom 9.849026 2.972883 54.989115 O
atom 6.566126 5.945765 30.000000 Ti
atom 9.849190 7.432207 30.000000 Ti
atom 7.842856 7.432207 30.000029 O
atom 9.849212 5.945765 31.276767 O
atom 13.132213 5.945765 32.006468 O
atom 8.572443 7.432207 33.283206 O
atom 9.849172 5.945765 33.283235 Ti
atom 13.132235 7.432207 33.283235 Ti
atom 11.125901 7.432207 33.283265 O
atom 6.566131 5.945765 34.560002 O
atom 9.849132 5.945765 35.289704 O
atom 11.855489 7.432207 36.566441 O
atom 13.132218 5.945765 36.566471 Ti
atom 9.849155 7.432207 36.566471 Ti
atom 7.842820 7.432207 36.566500 O
atom 9.849177 5.945765 37.843237 O
atom 13.132178 5.945765 38.572939 O
atom 8.572408 7.432207 39.849676 O
atom 9.849137 5.945765 39.849706 Ti
atom 13.132200 7.432207 39.849706 Ti
atom 11.125866 7.432207 39.849735 O
atom 13.132223 5.945765 41.126473 O
atom 9.849097 5.945765 41.856174 O
atom 11.855454 7.432207 43.132912 O
atom 13.132183 5.945765 43.132941 Ti
atom 9.849119 7.432207 43.132941 Ti
atom 7.842785 7.432207 43.132970 O
atom 9.849142 5.945765 44.409708 O
atom 13.132143 5.945765 45.139409 O
atom 8.572373 7.432207 46.416147 O
atom 9.849102 5.945765 46.416176 Ti
atom 13.132165 7.432207 46.416176 Ti
atom 11.125831 7.432207 46.416206 O
atom 13.132188 5.945765 47.692943 O
atom 9.849062 5.945765 48.422645 O
atom 11.855418 7.432207 49.699382 O
atom 13.132147 5.945765 49.699412 Ti
atom 9.849084 7.432207 49.699412 Ti
atom 7.842750 7.432207 49.699441 O
atom 9.849107 5.945765 50.976178 O
atom 13.132107 5.945765 51.705880 O
atom 8.572338 7.432207 52.982617 O
atom 9.849067 5.945765 52.982647 Ti
atom 13.132130 7.432207 52.982647 Ti
atom 11.125796 7.432207 52.982676 O
atom 13.132152 5.945765 54.259414 O
atom 9.849026 5.945765 54.989115 O
atom 6.566126 8.918648 30.000000 Ti
atom 9.849190 10.405089 30.000000 Ti
atom 7.842856 10.405089 30.000029 O
atom 9.849212 8.918648 31.276767 O
atom 13.132213 8.918648 32.006468 O
atom 8.572443 10.405089 33.283206 O
atom 9.849172 8.918648 33.283235 Ti
atom 13.132235 10.405089 33.283235 Ti
atom 11.125901 10.405089 33.283265 O
atom 6.566131 8.918648 34.560002 O
atom 9.849132 8.918648 35.289704 O
atom 11.855489 10.405089 36.566441 O
atom 13.132218 8.918648 36.566471 Ti
atom 9.849155 10.405089 36.566471 Ti
atom 7.842820 10.405089 36.566500 O
atom 9.849177 8.918648 37.843237 O
atom 13.132178 8.918648 38.572939 O
atom 8.572408 10.405089 39.849676 O
atom 9.849137 8.918648 39.849706 Ti
atom 13.132200 10.405089 39.849706 Ti
atom 11.125866 10.405089 39.849735 O
atom 13.132223 8.918648 41.126473 O
atom 9.849097 8.918648 41.856174 O
atom 11.855454 10.405089 43.132912 O
atom 13.132183 8.918648 43.132941 Ti
atom 9.849119 10.405089 43.132941 Ti
atom 7.842785 10.405089 43.132970 O
atom 9.849142 8.918648 44.409708 O
atom 13.132143 8.918648 45.139409 O
atom 8.572373 10.405089 46.416147 O
atom 9.849102 8.918648 46.416176 Ti
atom 13.132165 10.405089 46.416176 Ti
atom 11.125831 10.405089 46.416206 O
atom 13.132188 8.918648 47.692943 O
atom 9.849062 8.918648 48.422645 O
atom 11.855418 10.405089 49.699382 O
atom 13.132147 8.918648 49.699412 Ti
atom 9.849084 10.405089 49.699412 Ti
atom 7.842750 10.405089 49.699441 O
atom 9.849107 8.918648 50.976178 O
atom 13.132107 8.918648 51.705880 O
atom 8.572338 10.405089 52.982617 O
atom 9.849067 8.918648 52.982647 Ti
atom 13.132130 10.405089 52.982647 Ti
atom 11.125796 10.405089 52.982676 O
atom 13.132152 8.918648 54.259414 O
atom 9.849026 8.918648 54.989115 O
atom 13.132253 0.000000 30.000000 Ti
atom 16.415316 1.486441 30.000000 Ti
atom 14.408982 1.486441 30.000029 O
atom 16.415339 0.000000 31.276767 O
atom 19.698339 0.000000 32.006468 O
atom 15.138570 1.486441 33.283206 O
atom 16.415299 0.000000 33.283235 Ti
atom 19.698362 1.486441 33.283235 Ti
atom 17.692028 1.486441 33.283265 O
atom 13.132258 0.000000 34.560002 O
atom 16.415259 0.000000 35.289704 O
atom 18.421615 1.486441 36.566441 O
atom 19.698344 0.000000 36.566471 Ti
atom 16.415281 1.486441 36.566471 Ti
atom 14.408947 1.486441 36.566500 O
atom 16.415304 0.000000 37.843237 O
atom 19.698304 0.000000 38.572939 O
atom 15.138534 1.486441 39.849676 O
atom 16.415263 0.000000 39.849706 Ti
atom 19.698327 1.486441 39.849706 Ti
atom 17.691993 1.486441 39.849735 O
atom 19.698349 0.000000 41.126473 O
atom 16.415223 0.000000 41.856174 O
atom 18.421580 1.486441 43.132912 O
atom 19.698309 0.000000 43.132941 Ti
atom 16.415246 1.486441 43.132941 Ti
atom 14.408912 1.486441 43.132970 O
atom 16.415268 0.000000 44.409708 O
atom 19.698269 0.000000 45.139409 O
atom 15.138499 1.486441 46.416147 O
atom 16.415228 0.000000 46.416176 Ti
atom 19.698292 1.486441 46.416176 Ti
atom 17.691957 1.486441 46.416206 O
atom 19.698314 0.000000 47.692943 O
atom 16.415188 0.000000 48.422645 O
atom 18.421545 1.486441 49.699382 O
atom 19.698274 0.000000 49.699412 Ti
atom 16.415211 1.486441 49.699412 Ti
atom 14.408876 1.486441 49.699441 O
atom 16.415233 0.000000 50.976178 O
atom 19.698234 0.000000 51.705880 O
atom 15.138464 1.486441 52.982617 O
atom 16.415193 0.000000 52.982647 Ti
atom 19.698256 1.486441 52.982647 Ti
atom 17.691922 1.486441 52.982676 O
atom 19.698279 0.000000 54.259414 O
atom 16.415153 0.000000 54.989115 O
atom 13.132253 2.972883 30.000000 Ti
atom 16.415316 4.459324 30.000000 Ti
atom 14.408982 4.459324 30.000029 O
atom 16.415339 2.972883 31.276767 O
atom 19.698339 2.972883 32.006468 O
atom 15.138570 4.459324 33.283206 O
atom 16.415299 2.972883 33.283235 Ti
atom 19.698362 4.459324 33.283235 Ti
atom 17.692028 4.459324 33.283265 O
atom 13.132258 2.972883 34.560002 O
atom 16.415259 2.972883 35.289704 O
atom 18.421615 4.459324 36.566441 O
atom 19.698344 2.972883 36.566471 Ti
atom 16.415281 4.459324 36.566471 Ti
atom 14.408947 4.459324 36.566500 O
atom 16.415304 2.972883 37.843237 O
atom 19.698304 2.972883 38.572939 O
atom 15.138534 4.459324 39.849676 O
atom 16.415263 2.972883 39.849706 Ti
atom 19.698327 4.459324 39.849706 Ti
atom 17.691993 4.459324 39.849735 O
atom 19.698349 2.972883 41.126473 O
atom 16.415223 2.972883 41.856174 O
atom 18.421580 4.459324 43.132912 O
atom 19.698309 2.972883 43.132941 Ti
atom 16.415246 4.459324 43.132941 Ti
atom 14.408912 4.459324 43.132970 O
atom 16.415268 2.972883 44.409708 O
atom 19.698269 2.972883 45.139409 O
atom 15.138499 4.459324 46.416147 O
atom 16.415228 2.972883 46.416176 Ti
atom 19.698292 4.459324 46.416176 Ti
atom 17.691957 4.459324 46.416206 O
atom 19.698314 2.972883 47.692943 O
atom 16.415188 2.972883 48.422645 O
atom 18.421545 4.459324 49.699382 O
atom 19.698274 2.972883 49.699412 Ti
atom 16.415211 4.459324 49.699412 Ti
atom 14.408876 4.459324 49.699441 O
atom 16.415233 2.972883 50.976178 O
atom 19.698234 2.972883 51.705880 O
atom 15.138464 4.459324 52.982617 O
atom 16.415193 2.972883 52.982647 Ti
atom 19.698256 4.459324 52.982647 Ti
atom 17.691922 4.459324 52.982676 O
atom 19.698279 2.972883 54.259414 O
atom 16.415153 2.972883 54.989115 O
atom 13.132253 5.945765 30.000000 Ti
atom 16.415316 7.432207 30.000000 Ti
atom 14.408982 7.432207 30.000029 O
atom 16.415339 5.945765 31.276767 O
atom 19.698339 5.945765 32.006468 O
atom 15.138570 7.432207 33.283206 O
atom 16.415299 5.945765 33.283235 Ti
atom 19.698362 7.432207 33.283235 Ti
atom 17.692028 7.432207 33.283265 O
atom 13.132258 5.945765 34.560002 O
atom 16.415259 5.945765 35.289704 O
atom 18.421615 7.432207 36.566441 O
atom 19.698344 5.945765 36.566471 Ti
atom 16.415281 7.432207 36.566471 Ti
atom 14.408947 7.432207 36.566500 O
atom 16.415304 5.945765 37.843237 O
atom 19.698304 5.945765 38.572939 O
atom 15.138534 7.432207 39.849676 O
atom 16.415263 5.945765 39.849706 Ti
atom 19.698327 7.432207 39.849706 Ti
atom 17.691993 7.432207 39.849735 O
atom 19.698349 5.945765 41.126473 O
atom 16.415223 5.945765 41.856174 O
atom 18.421580 7.432207 43.132912 O
atom 19.698309 5.945765 43.132941 Ti
atom 16.415246 7.432207 43.132941 Ti
atom 14.408912 7.432207 43.132970 O
atom 16.415268 5.945765 44.409708 O
atom 19.698269 5.945765 45.139409 O
atom 15.138499 7.432207 46.416147 O
atom 16.415228 5.945765 46.416176 Ti
atom 19.698292 7.432207 46.416176 Ti
atom 17.691957 7.432207 46.416206 O
atom 19.698314 5.945765 47.692943 O
atom 16.415188 5.945765 48.422645 O
atom 18.421545 7.432207 49.699382 O
atom 19.698274 5.945765 49.699412 Ti
atom 16.415211 7.432207 49.699412 Ti
atom 14.408876 7.432207 49.699441 O
atom 16.415233 5.945765 50.976178 O
atom 19.698234 5.945765 51.705880 O
atom 15.138464 7.432207 52.982617 O
atom 16.415193 5.945765 52.982647 Ti
atom 19.698256 7.432207 52.982647 Ti
atom 17.691922 7.432207 52.982676 O
atom 19.698279 5.945765 54.259414 O
atom 16.415153 5.945765 54.989115 O
atom 13.132253 8.918648 30.000000 Ti
atom 16.415316 10.405089 30.000000 Ti
atom 14.408982 10.405089 30.000029 O
atom 16.415339 8.918648 31.276767 O
atom 19.698339 8.918648 32.006468 O
atom 15.138570 10.405089 33.283206 O
atom 16.415299 8.918648 33.283235 Ti
atom 19.698362 10.405089 33.283235 Ti
atom 17.692028 10.405089 33.283265 O
atom 13.132258 8.918648 34.560002 O
atom 16.415259 8.918648 35.289704 O
atom 18.421615 10.405089 36.566441 O
atom 19.698344 8.918648 36.566471 Ti
atom 16.415281 10.405089 36.566471 Ti
atom 14.408947 10.405089 36.566500 O
atom 16.415304 8.918648 37.843237 O
atom 19.698304 8.918648 38.572939 O
atom 15.138534 10.405089 39.849676 O
atom 16.415263 8.918648 39.849706 Ti
atom 19.698327 10.405089 39.849706 Ti
atom 17.691993 10.405089 39.849735 O
atom 19.698349 8.918648 41.126473 O
atom 16.415223 8.918648 41.856174 O
atom 18.421580 10.405089 43.132912 O
atom 19.698309 8.918648 43.132941 Ti
atom 16.415246 10.405089 43.132941 Ti
atom 14.408912 10.405089 43.132970 O
atom 16.415268 8.918648 44.409708 O
atom 19.698269 8.918648 45.139409 O
atom 15.138499 10.405089 46.416147 O
atom 16.415228 8.918648 46.416176 Ti
atom 19.698292 10.405089 46.416176 Ti
atom 17.691957 10.405089 46.416206 O
atom 19.698314 8.918648 47.692943 O
atom 16.415188 8.918648 48.422645 O
atom 18.421545 10.405089 49.699382 O
atom 19.698274 8.918648 49.699412 Ti
atom 16.415211 10.405089 49.699412 Ti
atom 14.408876 10.405089 49.699441 O
atom 16.415233 8.918648 50.976178 O
atom 19.698234 8.918648 51.705880 O
atom 15.138464 10.405089 52.982617 O
atom 16.415193 8.918648 52.982647 Ti
atom 19.698256 10.405089 52.982647 Ti
atom 17.691922 10.405089 52.982676 O
atom 19.698279 8.918648 54.259414 O
atom 16.415153 8.918648 54.989115 O
atom 19.698379 0.000000 30.000000 Ti
atom 22.981443 1.486441 30.000000 Ti
atom 20.975109 1.486441 30.000029 O
atom 22.981465 0.000000 31.276767 O
atom 26.264466 0.000000 32.006468 O
atom 21.704696 1.486441 33.283206 O
atom 22.981425 0.000000 33.283235 Ti
atom 26.264488 1.486441 33.283235 Ti
atom 24.258154 1.486441 33.283265 O
atom 19.698384 0.000000 34.560002 O
atom 22.981385 0.000000 35.289704 O
atom 24.987742 1.486441 36.566441 O
atom 26.264471 0.000000 36.566471 Ti
atom 22.981408 1.486441 36.566471 Ti
atom 20.975073 1.486441 36.566500 O
atom 22.981430 0.000000 37.843237 O
atom 26.264431 0.000000 38.572939 O
atom 21.704661 1.486441 39.849676 O
atom 22.981390 0.000000 39.849706 Ti
atom 26.264453 1.486441 39.849706 Ti
atom 24.258119 1.486441 39.849735 O
atom 26.264476 0.000000 41.126473 O
atom 22.981350 0.000000 41.856174 O
atom 24.987707 1.486441 43.132912 O
atom 26.264436 0.000000 43.132941 Ti
atom 22.981372 1.486441 43.132941 Ti
atom 20.975038 1.486441 43.132970 O
atom 22.981395 0.000000 44.409708 O
atom 26.264396 0.000000 45.139409 O
atom 21.704626 1.486441 46.416147 O
atom 22.981355 0.000000 46.416176 Ti
atom 26.264418 1.486441 46.416176 Ti
atom 24.258084 1.486441 46.416206 O
atom 26.264441 0.000000 47.692943 O
atom 22.981315 0.000000 48.422645 O
atom 24.987671 1.486441 49.699382 O
atom 26.264400 0.000000 49.699412 Ti
atom 22.981337 1.486441 49.699412 Ti
atom 20.975003 1.486441 49.699441 O
atom 22.981360 0.000000 50.976178 O
atom 26.264360 0.000000 51.705880 O
atom 21.704591 1.486441 52.982617 O
atom 22.981320 0.000000 52.982647 Ti
atom 26.264383 1.486441 52.982647 Ti
atom 24.258049 1.486441 52.982676 O
atom 26.264405 0.000000 54.259414 O
atom 22.981279 0.000000 54.989115 O
atom 19.698379 2.972883 30.000000 Ti
atom 22.981443 4.459324 30.000000 Ti
atom 20.975109 4.459324 30.000029 O
atom 22.981465 2.972883 31.276767 O
atom 26.264466 2.972883 32.006468 O
atom 21.704696 4.459324 33.283206 O
atom 22.981425 2.972883 33.283235 Ti
atom 26.264488 4.459324 33.283235 Ti
atom 24.258154 4.459324 33.283265 O
atom 19.698384 2.972883 34.560002 O
atom 22.981385 2.972883 35.289704 O
atom 24.987742 4.459324 36.566441 O
atom 26.264471 2.972883 36.566471 Ti
atom 22.981408 4.459324 36.566471 Ti
atom 20.975073 4.459324 36.566500 O
atom 22.981430 2.972883 37.843237 O
atom 26.264431 2.972883 38.572939 O
atom 21.704661 4.459324 39.849676 O
atom 22.981390 2.972883 39.849706 Ti
atom 26.264453 4.459324 39.849706 Ti
atom 24.258119 4.459324 39.849735 O
atom 26.264476 2.972883 41.126473 O
atom 22.981350 2.972883 41.856174 O
atom 24.987707 4.459324 43.132912 O
atom 26.264436 2.972883 43.132941 Ti
atom 22.981372 4.459324 43.132941 Ti
atom 20.975038 4.459324 43.132970 O
atom 22.981395 2.972883 44.409708 O
atom 26.264396 2.972883 45.139409 O
atom 21.704626 4.459324 46.416147 O
atom 22.981355 2.972883 46.416176 Ti
atom 26.264418 4.459324 46.416176 Ti
atom 24.258084 4.459324 46.416206 O
atom 26.264441 2.972883 47.692943 O
atom 22.981315 2.972883 48.422645 O
atom 24.987671 4.459324 49.699382 O
atom 26.264400 2.972883 49.699412 Ti
atom 22.981337 4.459324 49.699412 Ti
atom 20.975003 4.459324 49.699441 O
atom 22.981360 2.972883 50.976178 O
atom 26.264360 2.972883 51.705880 O
atom 21.704591 4.459324 52.982617 O
atom 22.981320 2.972883 52.982647 Ti
atom 26.264383 4.459324 52.982647 Ti
atom 24.258049 4.459324 52.982676 O
atom 26.264405 2.972883 54.259414 O
atom 22.981279 2.972883 54.989115 O
atom 19.698379 5.945765 30.000000 Ti
atom 22.981443 7.432207 30.000000 Ti
atom 20.975109 7.432207 30.000029 O
atom 22.981465 5.945765 31.276767 O
atom 26.264466 5.945765 32.006468 O
atom 21.704696 7.432207 33.283206 O
atom 22.981425 5.945765 33.283235 Ti
atom 26.264488 7.432207 33.283235 Ti
atom 24.258154 7.432207 33.283265 O
atom 19.698384 5.945765 34.560002 O
atom 22.981385 5.945765 35.289704 O
atom 24.987742 7.432207 36.566441 O
atom 26.264471 5.945765 36.566471 Ti
atom 22.981408 7.432207 36.566471 Ti
atom 20.975073 7.432207 36.566500 O
atom 22.981430 5.945765 37.843237 O
atom 26.264431 5.945765 38.572939 O
atom 21.704661 7.432207 39.849676 O
atom 22.981390 5.945765 39.849706 Ti
atom 26.264453 7.432207 39.849706 Ti
atom 24.258119 7.432207 39.849735 O
atom 26.264476 5.945765 41.126473 O
atom 22.981350 5.945765 41.856174 O
atom 24.987707 7.432207 43.132912 O
atom 26.264436 5.945765 43.132941 Ti
atom 22.981372 7.432207 43.132941 Ti
atom 20.975038 7.432207 43.132970 O
atom 22.981395 5.945765 44.409708 O
atom 26.264396 5.945765 45.139409 O
atom 21.704626 7.432207 46.416147 O
atom 22.981355 5.945765 46.416176 Ti
atom 26.264418 7.432207 46.416176 Ti
atom 24.258084 7.432207 46.416206 O
atom 26.264441 5.945765 47.692943 O
atom 22.981315 5.945765 48.422645 O
atom 24.987671 7.432207 49.699382 O
atom 26.264400 5.945765 49.699412 Ti
atom 22.981337 7.432207 49.699412 Ti
atom 20.975003 7.432207 49.699441 O
atom 22.981360 5.945765 50.976178 O
atom 26.264360 5.945765 51.705880 O
atom 21.704591 7.432207 52.982617 O
atom 22.981320 5.945765 52.982647 Ti
atom 26.264383 7.432207 52.982647 Ti
atom 24.258049 7.432207 52.982676 O
atom 26.264405 5.945765 54.259414 O
atom 22.981279 5.945765 54.989115 O
atom 19.698379 8.918648 30.000000 Ti
atom 22.981443 10.405089 30.000000 Ti
atom 20.975109 10.405089 30.000029 O
atom 22.981465 8.918648 31.276767 O
atom 26.264466 8.918648 32.006468 O
atom 21.704696 10.405089 33.283206 O
atom 22.981425 8.918648 33.283235 Ti
atom 26.264488 10.405089 33.283235 Ti
atom 24.258154 10.405089 33.283265 O
atom 19.698384 8.918648 34.560002 O
atom 22.981385 8.918648 35.289704 O
atom 24.987742 10.405089 36.566441 O
atom 26.264471 8.918648 36.566471 Ti
atom 22.981408 10.405089 36.566471 Ti
atom 20.975073 10.405089 36.566500 O
atom 22.981430 8.918648 37.843237 O
atom 26.264431 8.918648 38.572939 O
atom 21.704661 10.405089 39.849676 O
atom 22.981390 8.918648 39.849706 Ti
atom 26.264453 10.405089 39.849706 Ti
atom 24.258119 10.405089 39.849735 O
atom 26.264476 8.918648 41.126473 O
atom 22.981350 8.918648 41.856174 O
atom 24.987707 10.405089 43.132912 O
atom 26.264436 8.918648 43.132941 Ti
atom 22.981372 10.405089 43.132941 Ti
atom 20.975038 10.405089 43.132970 O
atom 22.981395 8.918648 44.409708 O
atom 26.264396 8.918648 45.139409 O
atom 21.704626 10.405089 46.416147 O
atom 22.981355 8.918648 46.416176 Ti
atom 26.264418 10.405089 46.416176 Ti
atom 24.258084 10.405089 46.416206 O
atom 26.264441 8.918648 47.692943 O
atom 22.981315 8.918648 48.422645 O
atom 24.987671 10.405089 49.699382 O
atom 26.264400 8.918648 49.699412 Ti
atom 22.981337 10.405089 49.699412 Ti
atom 20.975003 10.405089 49.699441 O
atom 22.981360 8.918648 50.976178 O
atom 26.264360 8.918648 51.705880 O
atom 21.704591 10.405089 52.982617 O
atom 22.981320 8.918648 52.982647 Ti
atom 26.264383 10.405089 52.982647 Ti
atom 24.258049 10.405089 52.982676 O
atom 26.264405 8.918648 54.259414 O
atom 22.981279 8.918648 54.989115 O
