lattice_vector 18.572247 0.000486 0.000000
lattice_vector 0.000487 18.572347 0.000000
lattice_vector 0.000000 0.000000 11.891531

atom_frac 1.000000 0.000000 0.000000 Ti
atom_frac 0.125000 0.125000 0.125000 Ti
atom_frac 0.076390 0.076392 0.000000 O
atom_frac 0.173610 0.173608 0.000000 O
atom_frac 0.048612 0.201391 0.125000 O
atom_frac 0.201388 0.048609 0.125000 O
atom_frac 1.000000 0.000000 0.250000 Ti
atom_frac 0.125000 0.125000 0.375000 Ti
atom_frac 0.076390 0.076392 0.250000 O
atom_frac 0.173610 0.173608 0.250000 O
atom_frac 0.048612 0.201391 0.375000 O
atom_frac 0.201388 0.048609 0.375000 O
atom_frac 1.000000 0.000000 0.500000 Ti
atom_frac 0.125000 0.125000 0.625000 Ti
atom_frac 0.076390 0.076392 0.500000 O
atom_frac 0.173610 0.173608 0.500000 O
atom_frac 0.048612 0.201391 0.625000 O
atom_frac 0.201388 0.048609 0.625000 O
atom_frac 1.000000 0.000000 0.750000 Ti
atom_frac 0.125000 0.125000 0.875000 Ti
atom_frac 0.076390 0.076392 0.750000 O
atom_frac 0.173610 0.173608 0.750000 O
atom_frac 0.048612 0.201391 0.875000 O
atom_frac 0.201388 0.048609 0.875000 O
atom_frac 1.000000 0.250000 0.000000 Ti
atom_frac 0.125000 0.375000 0.125000 Ti
atom_frac 0.076390 0.326392 0.000000 O
atom_frac 0.173610 0.423608 0.000000 O
atom_frac 0.048612 0.451391 0.125000 O
atom_frac 0.201388 0.298609 0.125000 O
atom_frac 1.000000 0.250000 0.250000 Ti
atom_frac 0.125000 0.375000 0.375000 Ti
atom_frac 0.076390 0.326392 0.250000 O
atom_frac 0.173610 0.423608 0.250000 O
atom_frac 0.048612 0.451391 0.375000 O
atom_frac 0.201388 0.298609 0.375000 O
atom_frac 1.000000 0.250000 0.500000 Ti
atom_frac 0.125000 0.375000 0.625000 Ti
atom_frac 0.076390 0.326392 0.500000 O
atom_frac 0.173610 0.423608 0.500000 O
atom_frac 0.048612 0.451391 0.625000 O
atom_frac 0.201388 0.298609 0.625000 O
atom_frac 1.000000 0.250000 0.750000 Ti
atom_frac 0.125000 0.375000 0.875000 Ti
atom_frac 0.076390 0.326392 0.750000 O
atom_frac 0.173610 0.423608 0.750000 O
atom_frac 0.048612 0.451391 0.875000 O
atom_frac 0.201388 0.298609 0.875000 O
atom_frac 1.000000 0.500000 0.000000 Ti
atom_frac 0.125000 0.625000 0.125000 Ti
atom_frac 0.076390 0.576392 0.000000 O
atom_frac 0.173610 0.673608 0.000000 O
atom_frac 0.048612 0.701391 0.125000 O
atom_frac 0.201388 0.548609 0.125000 O
atom_frac 1.000000 0.500000 0.250000 Ti
atom_frac 0.125000 0.625000 0.375000 Ti
atom_frac 0.076390 0.576392 0.250000 O
atom_frac 0.173610 0.673608 0.250000 O
atom_frac 0.048612 0.701391 0.375000 O
atom_frac 0.201388 0.548609 0.375000 O
atom_frac 1.000000 0.500000 0.500000 Ti
atom_frac 0.125000 0.625000 0.625000 Ti
atom_frac 0.076390 0.576392 0.500000 O
atom_frac 0.173610 0.673608 0.500000 O
atom_frac 0.048612 0.701391 0.625000 O
atom_frac 0.201388 0.548609 0.625000 O
atom_frac 1.000000 0.500000 0.750000 Ti
atom_frac 0.125000 0.625000 0.875000 Ti
atom_frac 0.076390 0.576392 0.750000 O
atom_frac 0.173610 0.673608 0.750000 O
atom_frac 0.048612 0.701391 0.875000 O
atom_frac 0.201388 0.548609 0.875000 O
atom_frac 1.000000 0.750000 0.000000 Ti
atom_frac 0.125000 0.875000 0.125000 Ti
atom_frac 0.076390 0.826392 0.000000 O
atom_frac 0.173610 0.923608 0.000000 O
atom_frac 0.048612 0.951391 0.125000 O
atom_frac 0.201388 0.798609 0.125000 O
atom_frac 1.000000 0.750000 0.250000 Ti
atom_frac 0.125000 0.875000 0.375000 Ti
atom_frac 0.076390 0.826392 0.250000 O
atom_frac 0.173610 0.923608 0.250000 O
atom_frac 0.048612 0.951391 0.375000 O
atom_frac 0.201388 0.798609 0.375000 O
atom_frac 1.000000 0.750000 0.500000 Ti
atom_frac 0.125000 0.875000 0.625000 Ti
atom_frac 0.076390 0.826392 0.500000 O
atom_frac 0.173610 0.923608 0.500000 O
atom_frac 0.048612 0.951391 0.625000 O
atom_frac 0.201388 0.798609 0.625000 O
atom_frac 1.000000 0.750000 0.750000 Ti
atom_frac 0.125000 0.875000 0.875000 Ti
atom_frac 0.076390 0.826392 0.750000 O
atom_frac 0.173610 0.923608 0.750000 O
atom_frac 0.048612 0.951391 0.875000 O
atom_frac 0.201388 0.798609 0.875000 O
atom_frac 0.250000 0.000000 0.000000 Ti
atom_frac 0.375000 0.125000 0.125000 Ti
atom_frac 0.326390 0.076392 0.000000 O
atom_frac 0.423610 0.173608 0.000000 O
atom_frac 0.298612 0.201391 0.125000 O
atom_frac 0.451388 0.048609 0.125000 O
atom_frac 0.250000 0.000000 0.250000 Ti
atom_frac 0.375000 0.125000 0.375000 Ti
atom_frac 0.326390 0.076392 0.250000 O
atom_frac 0.423610 0.173608 0.250000 O
atom_frac 0.298612 0.201391 0.375000 O
atom_frac 0.451388 0.048609 0.375000 O
atom_frac 0.250000 0.000000 0.500000 Ti
atom_frac 0.375000 0.125000 0.625000 Ti
atom_frac 0.326390 0.076392 0.500000 O
atom_frac 0.423610 0.173608 0.500000 O
atom_frac 0.298612 0.201391 0.625000 O
atom_frac 0.451388 0.048609 0.625000 O
atom_frac 0.250000 0.000000 0.750000 Ti
atom_frac 0.375000 0.125000 0.875000 Ti
atom_frac 0.326390 0.076392 0.750000 O
atom_frac 0.423610 0.173608 0.750000 O
atom_frac 0.298612 0.201391 0.875000 O
atom_frac 0.451388 0.048609 0.875000 O
atom_frac 0.250000 0.250000 0.000000 Ti
atom_frac 0.375000 0.375000 0.125000 Ti
atom_frac 0.326390 0.326392 0.000000 O
atom_frac 0.423610 0.423608 0.000000 O
atom_frac 0.298612 0.451391 0.125000 O
atom_frac 0.451388 0.298609 0.125000 O
atom_frac 0.250000 0.250000 0.250000 Ti
atom_frac 0.375000 0.375000 0.375000 Ti
atom_frac 0.326390 0.326392 0.250000 O
atom_frac 0.423610 0.423608 0.250000 O
atom_frac 0.298612 0.451391 0.375000 O
atom_frac 0.451388 0.298609 0.375000 O
atom_frac 0.250000 0.250000 0.500000 Ti
atom_frac 0.375000 0.375000 0.625000 Ti
atom_frac 0.326390 0.326392 0.500000 O
atom_frac 0.423610 0.423608 0.500000 O
atom_frac 0.298612 0.451391 0.625000 O
atom_frac 0.451388 0.298609 0.625000 O
atom_frac 0.250000 0.250000 0.750000 Ti
atom_frac 0.375000 0.375000 0.875000 Ti
atom_frac 0.326390 0.326392 0.750000 O
atom_frac 0.423610 0.423608 0.750000 O
atom_frac 0.298612 0.451391 0.875000 O
atom_frac 0.451388 0.298609 0.875000 O
atom_frac 0.250000 0.500000 0.000000 Ti
atom_frac 0.375000 0.625000 0.125000 Ti
atom_frac 0.326390 0.576392 0.000000 O
atom_frac 0.423610 0.673608 0.000000 O
atom_frac 0.298612 0.701391 0.125000 O
atom_frac 0.451388 0.548609 0.125000 O
atom_frac 0.250000 0.500000 0.250000 Ti
atom_frac 0.375000 0.625000 0.375000 Ti
atom_frac 0.326390 0.576392 0.250000 O
atom_frac 0.423610 0.673608 0.250000 O
atom_frac 0.298612 0.701391 0.375000 O
atom_frac 0.451388 0.548609 0.375000 O
atom_frac 0.250000 0.500000 0.500000 Ti
atom_frac 0.375000 0.625000 0.625000 Ti
atom_frac 0.326390 0.576392 0.500000 O
atom_frac 0.423610 0.673608 0.500000 O
atom_frac 0.298612 0.701391 0.625000 O
atom_frac 0.451388 0.548609 0.625000 O
atom_frac 0.250000 0.500000 0.750000 Ti
atom_frac 0.375000 0.625000 0.875000 Ti
atom_frac 0.326390 0.576392 0.750000 O
atom_frac 0.423610 0.673608 0.750000 O
atom_frac 0.298612 0.701391 0.875000 O
atom_frac 0.451388 0.548609 0.875000 O
atom_frac 0.250000 0.750000 0.000000 Ti
atom_frac 0.375000 0.875000 0.125000 Ti
atom_frac 0.326390 0.826392 0.000000 O
atom_frac 0.423610 0.923608 0.000000 O
atom_frac 0.298612 0.951391 0.125000 O
atom_frac 0.451388 0.798609 0.125000 O
atom_frac 0.250000 0.750000 0.250000 Ti
atom_frac 0.375000 0.875000 0.375000 Ti
atom_frac 0.326390 0.826392 0.250000 O
atom_frac 0.423610 0.923608 0.250000 O
atom_frac 0.298612 0.951391 0.375000 O
atom_frac 0.451388 0.798609 0.375000 O
atom_frac 0.250000 0.750000 0.500000 Ti
atom_frac 0.375000 0.875000 0.625000 Ti
atom_frac 0.326390 0.826392 0.500000 O
atom_frac 0.423610 0.923608 0.500000 O
atom_frac 0.298612 0.951391 0.625000 O
atom_frac 0.451388 0.798609 0.625000 O
atom_frac 0.250000 0.750000 0.750000 Ti
atom_frac 0.375000 0.875000 0.875000 Ti
atom_frac 0.326390 0.826392 0.750000 O
atom_frac 0.423610 0.923608 0.750000 O
atom_frac 0.298612 0.951391 0.875000 O
atom_frac 0.451388 0.798609 0.875000 O
atom_frac 0.500000 0.000000 0.000000 Ti
atom_frac 0.625000 0.125000 0.125000 Ti
atom_frac 0.576390 0.076392 0.000000 O
atom_frac 0.673610 0.173608 0.000000 O
atom_frac 0.548612 0.201391 0.125000 O
atom_frac 0.701388 0.048609 0.125000 O
atom_frac 0.500000 0.000000 0.250000 Ti
atom_frac 0.625000 0.125000 0.375000 Ti
atom_frac 0.576390 0.076392 0.250000 O
atom_frac 0.673610 0.173608 0.250000 O
atom_frac 0.548612 0.201391 0.375000 O
atom_frac 0.701388 0.048609 0.375000 O
atom_frac 0.500000 0.000000 0.500000 Ti
atom_frac 0.625000 0.125000 0.625000 Ti
atom_frac 0.576390 0.076392 0.500000 O
atom_frac 0.673610 0.173608 0.500000 O
atom_frac 0.548612 0.201391 0.625000 O
atom_frac 0.701388 0.048609 0.625000 O
atom_frac 0.500000 0.000000 0.750000 Ti
atom_frac 0.625000 0.125000 0.875000 Ti
atom_frac 0.576390 0.076392 0.750000 O
atom_frac 0.673610 0.173608 0.750000 O
atom_frac 0.548612 0.201391 0.875000 O
atom_frac 0.701388 0.048609 0.875000 O
atom_frac 0.500000 0.250000 0.000000 Ti
atom_frac 0.625000 0.375000 0.125000 Ti
atom_frac 0.576390 0.326392 0.000000 O
atom_frac 0.673610 0.423608 0.000000 O
atom_frac 0.548612 0.451391 0.125000 O
atom_frac 0.701388 0.298609 0.125000 O
atom_frac 0.500000 0.250000 0.250000 Ti
atom_frac 0.625000 0.375000 0.375000 Ti
atom_frac 0.576390 0.326392 0.250000 O
atom_frac 0.673610 0.423608 0.250000 O
atom_frac 0.548612 0.451391 0.375000 O
atom_frac 0.701388 0.298609 0.375000 O
atom_frac 0.500000 0.250000 0.500000 Ti
atom_frac 0.625000 0.375000 0.625000 Ti
atom_frac 0.576390 0.326392 0.500000 O
atom_frac 0.673610 0.423608 0.500000 O
atom_frac 0.548612 0.451391 0.625000 O
atom_frac 0.701388 0.298609 0.625000 O
atom_frac 0.500000 0.250000 0.750000 Ti
atom_frac 0.625000 0.375000 0.875000 Ti
atom_frac 0.576390 0.326392 0.750000 O
atom_frac 0.673610 0.423608 0.750000 O
atom_frac 0.548612 0.451391 0.875000 O
atom_frac 0.701388 0.298609 0.875000 O
atom_frac 0.500000 0.500000 0.000000 Ti
atom_frac 0.625000 0.625000 0.125000 Ti
atom_frac 0.576390 0.576392 0.000000 O
atom_frac 0.673610 0.673608 0.000000 O
atom_frac 0.548612 0.701391 0.125000 O
atom_frac 0.701388 0.548609 0.125000 O
atom_frac 0.500000 0.500000 0.250000 Ti
atom_frac 0.625000 0.625000 0.375000 Ti
atom_frac 0.576390 0.576392 0.250000 O
atom_frac 0.673610 0.673608 0.250000 O
atom_frac 0.548612 0.701391 0.375000 O
atom_frac 0.701388 0.548609 0.375000 O
atom_frac 0.500000 0.500000 0.500000 Ti
atom_frac 0.625000 0.625000 0.625000 Ti
atom_frac 0.576390 0.576392 0.500000 O
atom_frac 0.673610 0.673608 0.500000 O
atom_frac 0.548612 0.701391 0.625000 O
atom_frac 0.701388 0.548609 0.625000 O
atom_frac 0.500000 0.500000 0.750000 Ti
atom_frac 0.625000 0.625000 0.875000 Ti
atom_frac 0.576390 0.576392 0.750000 O
atom_frac 0.673610 0.673608 0.750000 O
atom_frac 0.548612 0.701391 0.875000 O
atom_frac 0.701388 0.548609 0.875000 O
atom_frac 0.500000 0.750000 0.000000 Ti
atom_frac 0.625000 0.875000 0.125000 Ti
atom_frac 0.576390 0.826392 0.000000 O
atom_frac 0.673610 0.923608 0.000000 O
atom_frac 0.548612 0.951391 0.125000 O
atom_frac 0.701388 0.798609 0.125000 O
atom_frac 0.500000 0.750000 0.250000 Ti
atom_frac 0.625000 0.875000 0.375000 Ti
atom_frac 0.576390 0.826392 0.250000 O
atom_frac 0.673610 0.923608 0.250000 O
atom_frac 0.548612 0.951391 0.375000 O
atom_frac 0.701388 0.798609 0.375000 O
atom_frac 0.500000 0.750000 0.500000 Ti
atom_frac 0.625000 0.875000 0.625000 Ti
atom_frac 0.576390 0.826392 0.500000 O
atom_frac 0.673610 0.923608 0.500000 O
atom_frac 0.548612 0.951391 0.625000 O
atom_frac 0.701388 0.798609 0.625000 O
atom_frac 0.500000 0.750000 0.750000 Ti
atom_frac 0.625000 0.875000 0.875000 Ti
atom_frac 0.576390 0.826392 0.750000 O
atom_frac 0.673610 0.923608 0.750000 O
atom_frac 0.548612 0.951391 0.875000 O
atom_frac 0.701388 0.798609 0.875000 O
atom_frac 0.750000 0.000000 0.000000 Ti
atom_frac 0.875000 0.125000 0.125000 Ti
atom_frac 0.826390 0.076392 0.000000 O
atom_frac 0.923610 0.173608 0.000000 O
atom_frac 0.798612 0.201391 0.125000 O
atom_frac 0.951388 0.048609 0.125000 O
atom_frac 0.750000 0.000000 0.250000 Ti
atom_frac 0.875000 0.125000 0.375000 Ti
atom_frac 0.826390 0.076392 0.250000 O
atom_frac 0.923610 0.173608 0.250000 O
atom_frac 0.798612 0.201391 0.375000 O
atom_frac 0.951388 0.048609 0.375000 O
atom_frac 0.750000 0.000000 0.500000 Ti
atom_frac 0.875000 0.125000 0.625000 Ti
atom_frac 0.826390 0.076392 0.500000 O
atom_frac 0.923610 0.173608 0.500000 O
atom_frac 0.798612 0.201391 0.625000 O
atom_frac 0.951388 0.048609 0.625000 O
atom_frac 0.750000 0.000000 0.750000 Ti
atom_frac 0.875000 0.125000 0.875000 Ti
atom_frac 0.826390 0.076392 0.750000 O
atom_frac 0.923610 0.173608 0.750000 O
atom_frac 0.798612 0.201391 0.875000 O
atom_frac 0.951388 0.048609 0.875000 O
atom_frac 0.750000 0.250000 0.000000 Ti
atom_frac 0.875000 0.375000 0.125000 Ti
atom_frac 0.826390 0.326392 0.000000 O
atom_frac 0.923610 0.423608 0.000000 O
atom_frac 0.798612 0.451391 0.125000 O
atom_frac 0.951388 0.298609 0.125000 O
atom_frac 0.750000 0.250000 0.250000 Ti
atom_frac 0.875000 0.375000 0.375000 Ti
atom_frac 0.826390 0.326392 0.250000 O
atom_frac 0.923610 0.423608 0.250000 O
atom_frac 0.798612 0.451391 0.375000 O
atom_frac 0.951388 0.298609 0.375000 O
atom_frac 0.750000 0.250000 0.500000 Ti
atom_frac 0.875000 0.375000 0.625000 Ti
atom_frac 0.826390 0.326392 0.500000 O
atom_frac 0.923610 0.423608 0.500000 O
atom_frac 0.798612 0.451391 0.625000 O
atom_frac 0.951388 0.298609 0.625000 O
atom_frac 0.750000 0.250000 0.750000 Ti
atom_frac 0.875000 0.375000 0.875000 Ti
atom_frac 0.826390 0.326392 0.750000 O
atom_frac 0.923610 0.423608 0.750000 O
atom_frac 0.798612 0.451391 0.875000 O
atom_frac 0.951388 0.298609 0.875000 O
atom_frac 0.750000 0.500000 0.000000 Ti
atom_frac 0.875000 0.625000 0.125000 Ti
atom_frac 0.826390 0.576392 0.000000 O
atom_frac 0.923610 0.673608 0.000000 O
atom_frac 0.798612 0.701391 0.125000 O
atom_frac 0.951388 0.548609 0.125000 O
atom_frac 0.750000 0.500000 0.250000 Ti
atom_frac 0.875000 0.625000 0.375000 Ti
atom_frac 0.826390 0.576392 0.250000 O
atom_frac 0.923610 0.673608 0.250000 O
atom_frac 0.798612 0.701391 0.375000 O
atom_frac 0.951388 0.548609 0.375000 O
atom_frac 0.750000 0.500000 0.500000 Ti
atom_frac 0.875000 0.625000 0.625000 Ti
atom_frac 0.826390 0.576392 0.500000 O
atom_frac 0.923610 0.673608 0.500000 O
atom_frac 0.798612 0.701391 0.625000 O
atom_frac 0.951388 0.548609 0.625000 O
atom_frac 0.750000 0.500000 0.750000 Ti
atom_frac 0.875000 0.625000 0.875000 Ti
atom_frac 0.826390 0.576392 0.750000 O
atom_frac 0.923610 0.673608 0.750000 O
atom_frac 0.798612 0.701391 0.875000 O
atom_frac 0.951388 0.548609 0.875000 O
atom_frac 0.750000 0.750000 0.000000 Ti
atom_frac 0.875000 0.875000 0.125000 Ti
atom_frac 0.826390 0.826392 0.000000 O
atom_frac 0.923610 0.923608 0.000000 O
atom_frac 0.798612 0.951391 0.125000 O
atom_frac 0.951388 0.798609 0.125000 O
atom_frac 0.750000 0.750000 0.250000 Ti
atom_frac 0.875000 0.875000 0.375000 Ti
atom_frac 0.826390 0.826392 0.250000 O
atom_frac 0.923610 0.923608 0.250000 O
atom_frac 0.798612 0.951391 0.375000 O
atom_frac 0.951388 0.798609 0.375000 O
atom_frac 0.750000 0.750000 0.500000 Ti
atom_frac 0.875000 0.875000 0.625000 Ti
atom_frac 0.826390 0.826392 0.500000 O
atom_frac 0.923610 0.923608 0.500000 O
atom_frac 0.798612 0.951391 0.625000 O
atom_frac 0.951388 0.798609 0.625000 O
atom_frac 0.750000 0.750000 0.750000 Ti
atom_frac 0.875000 0.875000 0.875000 Ti
atom_frac 0.826390 0.826392 0.750000 O
atom_frac 0.923610 0.923608 0.750000 O
atom_frac 0.798612 0.951391 0.875000 O
atom_frac 0.951388 0.798609 0.875000 O
