lattice_vector 13.132253 0.000000 0.000000
lattice_vector 0.000000 11.891531 0.000000
lattice_vector 0.000000 0.000000 44.409708

atom 6.566086 0.000000 17.006468 O
atom 2.006317 1.486441 18.283206 O
atom 3.283046 0.000000 18.283235 Ti
atom 6.566109 1.486441 18.283235 Ti
atom 4.559775 1.486441 18.283265 O
atom 0.000005 0.000000 19.560002 O
atom 3.283006 0.000000 20.289704 O
atom 5.289362 1.486441 21.566441 O
atom 6.566091 0.000000 21.566471 Ti
atom 3.283028 1.486441 21.566471 Ti
atom 1.276694 1.486441 21.566500 O
atom 3.283051 0.000000 22.843237 O
atom 6.566051 0.000000 23.572939 O
atom 2.006281 1.486441 24.849676 O
atom 3.283010 0.000000 24.849706 Ti
atom 6.566074 1.486441 24.849706 Ti
atom 4.559740 1.486441 24.849735 O
atom 6.566096 0.000000 26.126473 O
atom 3.282970 0.000000 26.856174 O
atom 5.289327 1.486441 28.132912 O
atom 6.566056 0.000000 28.132941 Ti
atom 3.282993 1.486441 28.132941 Ti
atom 1.276659 1.486441 28.132970 O
atom 3.283015 0.000000 29.409708 O
atom 3.283015 0.000000 30.409708 H
atom 6.566086 0.000000 16.006468 H
atom 6.566056 0.000000 30.132941 O
atom 6.566056 0.000000 31.132941 H
atom 3.283046 0.000000 16.283235 O
atom 3.283046 0.000000 15.283235 H
atom 6.566086 2.972883 17.006468 O
atom 2.006317 4.459324 18.283206 O
atom 3.283046 2.972883 18.283235 Ti
atom 6.566109 4.459324 18.283235 Ti
atom 4.559775 4.459324 18.283265 O
atom 0.000005 2.972883 19.560002 O
atom 3.283006 2.972883 20.289704 O
atom 5.289362 4.459324 21.566441 O
atom 6.566091 2.972883 21.566471 Ti
atom 3.283028 4.459324 21.566471 Ti
atom 1.276694 4.459324 21.566500 O
atom 3.283051 2.972883 22.843237 O
atom 6.566051 2.972883 23.572939 F
atom 2.006281 4.459324 24.849676 O
atom 3.283010 2.972883 24.849706 Ti
atom 6.566074 4.459324 24.849706 Ti
atom 4.559740 4.459324 24.849735 O
atom 6.566096 2.972883 26.126473 O
atom 3.282970 2.972883 26.856174 O
atom 5.289327 4.459324 28.132912 O
atom 6.566056 2.972883 28.132941 Ti
atom 3.282993 4.459324 28.132941 Ti
atom 1.276659 4.459324 28.132970 O
atom 3.283015 2.972883 29.409708 O
atom 3.283015 2.972883 30.409708 H
atom 6.566086 2.972883 16.006468 H
atom 6.566056 2.972883 30.132941 O
atom 6.566056 2.972883 31.132941 H
atom 3.283046 2.972883 16.283235 O
atom 3.283046 2.972883 15.283235 H
atom 6.566086 5.945765 17.006468 O
atom 2.006317 7.432207 18.283206 O
atom 3.283046 5.945765 18.283235 Ti
atom 6.566109 7.432207 18.283235 Ti
atom 4.559775 7.432207 18.283265 O
atom 0.000005 5.945765 19.560002 O
atom 3.283006 5.945765 20.289704 O
atom 5.289362 7.432207 21.566441 O
atom 6.566091 5.945765 21.566471 Ti
atom 3.283028 7.432207 21.566471 Ti
atom 1.276694 7.432207 21.566500 O
atom 3.283051 5.945765 22.843237 O
atom 6.566051 5.945765 23.572939 O
atom 2.006281 7.432207 24.849676 O
atom 3.283010 5.945765 24.849706 Ti
atom 6.566074 7.432207 24.849706 Ti
atom 4.559740 7.432207 24.849735 O
atom 6.566096 5.945765 26.126473 O
atom 3.282970 5.945765 26.856174 O
atom 5.289327 7.432207 28.132912 O
atom 6.566056 5.945765 28.132941 Ti
atom 3.282993 7.432207 28.132941 Ti
atom 1.276659 7.432207 28.132970 O
atom 3.283015 5.945765 29.409708 O
atom 3.283015 5.945765 30.409708 H
atom 6.566086 5.945765 16.006468 H
atom 6.566056 5.945765 30.132941 O
atom 6.566056 5.945765 31.132941 H
atom 3.283046 5.945765 16.283235 O
atom 3.283046 5.945765 15.283235 H
atom 6.566086 8.918648 17.006468 O
atom 2.006317 10.405089 18.283206 O
atom 3.283046 8.918648 18.283235 Ti
atom 6.566109 10.405089 18.283235 Ti
atom 4.559775 10.405089 18.283265 O
atom 0.000005 8.918648 19.560002 O
atom 3.283006 8.918648 20.289704 O
atom 5.289362 10.405089 21.566441 O
atom 6.566091 8.918648 21.566471 Ti
atom 3.283028 10.405089 21.566471 Ti
atom 1.276694 10.405089 21.566500 O
atom 3.283051 8.918648 22.843237 O
atom 6.566051 8.918648 23.572939 O
atom 2.006281 10.405089 24.849676 O
atom 3.283010 8.918648 24.849706 Ti
atom 6.566074 10.405089 24.849706 Ti
atom 4.559740 10.405089 24.849735 O
atom 6.566096 8.918648 26.126473 O
atom 3.282970 8.918648 26.856174 O
atom 5.289327 10.405089 28.132912 O
atom 6.566056 8.918648 28.132941 Ti
atom 3.282993 10.405089 28.132941 Ti
atom 1.276659 10.405089 28.132970 O
atom 3.283015 8.918648 29.409708 O
atom 3.283015 8.918648 30.409708 H
atom 6.566086 8.918648 16.006468 H
atom 6.566056 8.918648 30.132941 O
atom 6.566056 8.918648 31.132941 H
atom 3.283046 8.918648 16.283235 O
atom 3.283046 8.918648 15.283235 H
atom 13.132213 0.000000 17.006468 O
atom 8.572443 1.486441 18.283206 O
atom 9.849172 0.000000 18.283235 Ti
atom 13.132235 1.486441 18.283235 Ti
atom 11.125901 1.486441 18.283265 O
atom 6.566131 0.000000 19.560002 O
atom 9.849132 0.000000 20.289704 O
atom 11.855489 1.486441 21.566441 O
atom 13.132218 0.000000 21.566471 Ti
atom 9.849155 1.486441 21.566471 Ti
atom 7.842820 1.486441 21.566500 O
atom 9.849177 0.000000 22.843237 O
atom 13.132178 0.000000 23.572939 O
atom 8.572408 1.486441 24.849676 O
atom 9.849137 0.000000 24.849706 Ti
atom 13.132200 1.486441 24.849706 Ti
atom 11.125866 1.486441 24.849735 O
atom 13.132223 0.000000 26.126473 O
atom 9.849097 0.000000 26.856174 O
atom 11.855454 1.486441 28.132912 O
atom 13.132183 0.000000 28.132941 Ti
atom 9.849119 1.486441 28.132941 Ti
atom 7.842785 1.486441 28.132970 O
atom 9.849142 0.000000 29.409708 O
atom 9.849142 0.000000 30.409708 H
atom 13.132213 0.000000 16.006468 H
atom 13.132183 0.000000 30.132941 O
atom 13.132183 0.000000 31.132941 H
atom 9.849173 0.000000 16.283235 O
atom 9.849173 0.000000 15.283235 H
atom 13.132213 2.972883 17.006468 O
atom 8.572443 4.459324 18.283206 O
atom 9.849172 2.972883 18.283235 Ti
atom 13.132235 4.459324 18.283235 Ti
atom 11.125901 4.459324 18.283265 O
atom 6.566131 2.972883 19.560002 O
atom 9.849132 2.972883 20.289704 O
atom 11.855489 4.459324 21.566441 O
atom 13.132218 2.972883 21.566471 Ti
atom 9.849155 4.459324 21.566471 Ti
atom 7.842820 4.459324 21.566500 O
atom 9.849177 2.972883 22.843237 O
atom 13.132178 2.972883 23.572939 O
atom 8.572408 4.459324 24.849676 O
atom 9.849137 2.972883 24.849706 Ti
atom 13.132200 4.459324 24.849706 Ti
atom 11.125866 4.459324 24.849735 O
atom 13.132223 2.972883 26.126473 O
atom 9.849097 2.972883 26.856174 O
atom 11.855454 4.459324 28.132912 O
atom 13.132183 2.972883 28.132941 Ti
atom 9.849119 4.459324 28.132941 Ti
atom 7.842785 4.459324 28.132970 O
atom 9.849142 2.972883 29.409708 O
atom 9.849142 2.972883 30.409708 H
atom 13.132213 2.972883 16.006468 H
atom 13.132183 2.972883 30.132941 O
atom 13.132183 2.972883 31.132941 H
atom 9.849173 2.972883 16.283235 O
atom 9.849173 2.972883 15.283235 H
atom 13.132213 5.945765 17.006468 O
atom 8.572443 7.432207 18.283206 O
atom 9.849172 5.945765 18.283235 Ti
atom 13.132235 7.432207 18.283235 Ti
atom 11.125901 7.432207 18.283265 O
atom 6.566131 5.945765 19.560002 O
atom 9.849132 5.945765 20.289704 O
atom 11.855489 7.432207 21.566441 O
atom 13.132218 5.945765 21.566471 Ti
atom 9.849155 7.432207 21.566471 Ti
atom 7.842820 7.432207 21.566500 O
atom 9.849177 5.945765 22.843237 O
atom 13.132178 5.945765 23.572939 O
atom 8.572408 7.432207 24.849676 O
atom 9.849137 5.945765 24.849706 Ti
atom 13.132200 7.432207 24.849706 Ti
atom 11.125866 7.432207 24.849735 O
atom 13.132223 5.945765 26.126473 O
atom 9.849097 5.945765 26.856174 O
atom 11.855454 7.432207 28.132912 O
atom 13.132183 5.945765 28.132941 Ti
atom 9.849119 7.432207 28.132941 Ti
atom 7.842785 7.432207 28.132970 O
atom 9.849142 5.945765 29.409708 O
atom 9.849142 5.945765 30.409708 H
atom 13.132213 5.945765 16.006468 H
atom 13.132183 5.945765 30.132941 O
atom 13.132183 5.945765 31.132941 H
atom 9.849173 5.945765 16.283235 O
atom 9.849173 5.945765 15.283235 H
atom 13.132213 8.918648 17.006468 O
atom 8.572443 10.405089 18.283206 O
atom 9.849172 8.918648 18.283235 Ti
atom 13.132235 10.405089 18.283235 Ti
atom 11.125901 10.405089 18.283265 O
atom 6.566131 8.918648 19.560002 O
atom 9.849132 8.918648 20.289704 O
atom 11.855489 10.405089 21.566441 O
atom 13.132218 8.918648 21.566471 Ti
atom 9.849155 10.405089 21.566471 Ti
atom 7.842820 10.405089 21.566500 O
atom 9.849177 8.918648 22.843237 O
atom 13.132178 8.918648 23.572939 O
atom 8.572408 10.405089 24.849676 O
atom 9.849137 8.918648 24.849706 Ti
atom 13.132200 10.405089 24.849706 Ti
atom 11.125866 10.405089 24.849735 O
atom 13.132223 8.918648 26.126473 O
atom 9.849097 8.918648 26.856174 O
atom 11.855454 10.405089 28.132912 O
atom 13.132183 8.918648 28.132941 Ti
atom 9.849119 10.405089 28.132941 Ti
atom 7.842785 10.405089 28.132970 O
atom 9.849142 8.918648 29.409708 O
atom 9.849142 8.918648 30.409708 H
atom 13.132213 8.918648 16.006468 H
atom 13.132183 8.918648 30.132941 O
atom 13.132183 8.918648 31.132941 H
atom 9.849173 8.918648 16.283235 O
atom 9.849173 8.918648 15.283235 H
