lattice_vector 4.594000 0.000000 0.000000
lattice_vector 0.000000 4.594000 0.000000
lattice_vector 0.000000 0.000000 2.958000

atom_frac 0.000000 0.000000 0.000000 Ti
atom_frac 0.500000 0.500000 0.500000 Ti
atom_frac 0.305000 0.305000 0.000000 O
atom_frac 0.695000 0.695000 0.000000 O
atom_frac 0.305000 0.695000 0.500000 O
atom_frac 0.695000 0.305000 0.500000 O
