lattice_vector 6.566127 0.000000 0.000000
lattice_vector 0.000000 2.972883 0.000000
lattice_vector 0.000000 0.000000 20.289704

atom -0.000000 0.000000 7.500000 Ti
atom 3.283063 1.486441 7.500000 Ti
atom 1.276729 1.486441 7.500029 O
atom 3.283086 0.000000 8.776767 O
atom 6.566086 0.000000 9.506468 O
atom 2.006317 1.486441 10.783206 O
atom 3.283046 0.000000 10.783235 Ti
atom 6.566109 1.486441 10.783235 Ti
atom 4.559775 1.486441 10.783265 O
atom 0.000005 0.000000 12.060002 O
atom 3.283006 0.000000 12.789704 O
