# 
# This is the geometry file that corresponds to the current relaxation step.
# If you do not want this file to be written, set the "write_restart_geometry" flag to .false.
#  aims_uuid : E4A9D7D2-937F-40AE-AD66-B18719003B72                                
# 
lattice_vector      4.64234200      0.00028029      0.00000000
lattice_vector      0.00028031      4.64234352     -0.00000000
lattice_vector      0.00000000      0.00000000      2.96302733
atom_frac      -0.00000000      0.00000000      0.00000002 Ti
atom_frac       0.50000000      0.50000000      0.49999999 Ti
atom_frac       0.30516653      0.30516670     -0.00000000 O
atom_frac       0.69483347      0.69483330     -0.00000000 O
atom_frac       0.19483793      0.80516223      0.50000000 O
atom_frac       0.80516207      0.19483777      0.50000000 O
# 
# What follows is the current estimated Hessian matrix constructed by the BFGS algorithm.
# This is NOT the true Hessian matrix of the system.
# If you do not want this information here, switch it off using the "hessian_to_restart_geometry" keyword.
# 
trust_radius             0.8000000119
hessian_file
