lattice_vector 13.132253 0.000000 0.000000
lattice_vector 0.000000 11.891530 0.000000
lattice_vector 0.000000 0.000000 45.139409

atom_frac 0.499997 0.000000 0.376754 O
atom_frac 0.152778 0.125000 0.405039 O
atom_frac 0.249999 0.000000 0.405039 Ti
atom_frac 0.499999 0.125000 0.405039 Ti
atom_frac 0.347220 0.125000 0.405040 O
atom_frac 0.000000 0.000000 0.433324 O
atom_frac 0.249996 0.000000 0.449490 O
atom_frac 0.402776 0.125000 0.477774 O
atom_frac 0.499997 0.000000 0.477775 Ti
atom_frac 0.249997 0.125000 0.477775 Ti
atom_frac 0.097218 0.125000 0.477775 O
atom_frac 0.249999 0.000000 0.506060 O
atom_frac 0.499994 0.000000 0.522225 O
atom_frac 0.152775 0.125000 0.550510 O
atom_frac 0.249996 0.000000 0.550510 Ti
atom_frac 0.499996 0.125000 0.550510 Ti
atom_frac 0.347217 0.125000 0.550511 O
atom_frac 0.499998 0.000000 0.578795 O
atom_frac 0.249993 0.000000 0.594961 O
atom_frac 0.402774 0.125000 0.623245 O
atom_frac 0.499995 0.000000 0.623246 Ti
atom_frac 0.249995 0.125000 0.623246 Ti
atom_frac 0.097216 0.125000 0.623246 O
atom_frac 0.249996 0.000000 0.651531 O
atom_frac 0.499997 0.250000 0.376754 O
atom_frac 0.152778 0.375000 0.405039 O
atom_frac 0.249999 0.250000 0.405039 Ti
atom_frac 0.499999 0.375000 0.405039 Ti
atom_frac 0.347220 0.375000 0.405040 O
atom_frac 0.000000 0.250000 0.433324 O
atom_frac 0.249996 0.250000 0.449490 O
atom_frac 0.402776 0.375000 0.477774 O
atom_frac 0.499997 0.250000 0.477775 Ti
atom_frac 0.249997 0.375000 0.477775 Ti
atom_frac 0.097218 0.375000 0.477775 O
atom_frac 0.249999 0.250000 0.506060 O
atom_frac 0.499994 0.250000 0.522225 O
atom_frac 0.152775 0.375000 0.550510 O
atom_frac 0.249996 0.250000 0.550510 Ti
atom_frac 0.499996 0.375000 0.550510 Ti
atom_frac 0.347217 0.375000 0.550511 O
atom_frac 0.499998 0.250000 0.578795 O
atom_frac 0.249993 0.250000 0.594961 O
atom_frac 0.402774 0.375000 0.623245 O
atom_frac 0.499995 0.250000 0.623246 Ti
atom_frac 0.249995 0.375000 0.623246 Ti
atom_frac 0.097216 0.375000 0.623246 O
atom_frac 0.249996 0.250000 0.651531 O
atom_frac 0.999997 0.000000 0.376754 O
atom_frac 0.652778 0.125000 0.405039 O
atom_frac 0.749999 0.000000 0.405039 Ti
atom_frac 0.999999 0.125000 0.405039 Ti
atom_frac 0.847220 0.125000 0.405040 O
atom_frac 0.500000 0.000000 0.433324 O
atom_frac 0.749996 0.000000 0.449490 O
atom_frac 0.902776 0.125000 0.477774 O
atom_frac 0.999997 0.000000 0.477775 Ti
atom_frac 0.749997 0.125000 0.477775 Ti
atom_frac 0.597218 0.125000 0.477775 O
atom_frac 0.749999 0.000000 0.506060 O
atom_frac 0.999994 0.000000 0.522225 O
atom_frac 0.652775 0.125000 0.550510 O
atom_frac 0.749996 0.000000 0.550510 Ti
atom_frac 0.999996 0.125000 0.550510 Ti
atom_frac 0.847217 0.125000 0.550511 O
atom_frac 0.999998 0.000000 0.578795 O
atom_frac 0.749993 0.000000 0.594961 O
atom_frac 0.902774 0.125000 0.623245 O
atom_frac 0.999995 0.000000 0.623246 Ti
atom_frac 0.749995 0.125000 0.623246 Ti
atom_frac 0.597216 0.125000 0.623246 O
atom_frac 0.749996 0.000000 0.651531 O
atom_frac 0.999997 0.250000 0.376754 O
atom_frac 0.652778 0.375000 0.405039 O
atom_frac 0.749999 0.250000 0.405039 Ti
atom_frac 0.999999 0.375000 0.405039 Ti
atom_frac 0.847220 0.375000 0.405040 O
atom_frac 0.500000 0.250000 0.433324 O
atom_frac 0.749996 0.250000 0.449490 O
atom_frac 0.902776 0.375000 0.477774 O
atom_frac 0.999997 0.250000 0.477775 Ti
atom_frac 0.749997 0.375000 0.477775 Ti
atom_frac 0.597218 0.375000 0.477775 O
atom_frac 0.749999 0.250000 0.506060 O
atom_frac 0.999994 0.250000 0.522225 O
atom_frac 0.652775 0.375000 0.550510 O
atom_frac 0.749996 0.250000 0.550510 Ti
atom_frac 0.999996 0.375000 0.550510 Ti
atom_frac 0.847217 0.375000 0.550511 O
atom_frac 0.999998 0.250000 0.578795 O
atom_frac 0.749993 0.250000 0.594961 O
atom_frac 0.902774 0.375000 0.623245 O
atom_frac 0.999995 0.250000 0.623246 Ti
atom_frac 0.749995 0.375000 0.623246 Ti
atom_frac 0.597216 0.375000 0.623246 O
atom_frac 0.749996 0.250000 0.651531 O
atom_frac 0.499997 0.500000 0.376754 O
atom_frac 0.152778 0.625000 0.405039 O
atom_frac 0.249999 0.500000 0.405039 Ti
atom_frac 0.499999 0.625000 0.405039 Ti
atom_frac 0.347220 0.625000 0.405040 O
atom_frac 0.000000 0.500000 0.433324 O
atom_frac 0.249996 0.500000 0.449490 O
atom_frac 0.402776 0.625000 0.477774 O
atom_frac 0.499997 0.500000 0.477775 Ti
atom_frac 0.249997 0.625000 0.477775 Ti
atom_frac 0.097218 0.625000 0.477775 O
atom_frac 0.249999 0.500000 0.506060 O
atom_frac 0.499994 0.500000 0.522225 O1
atom_frac 0.152775 0.625000 0.550510 O
atom_frac 0.249996 0.500000 0.550510 Ti
atom_frac 0.499996 0.625000 0.550510 Ti
atom_frac 0.347217 0.625000 0.550511 O
atom_frac 0.499998 0.500000 0.578795 O
atom_frac 0.249993 0.500000 0.594961 O
atom_frac 0.402774 0.625000 0.623245 O
atom_frac 0.499995 0.500000 0.623246 Ti
atom_frac 0.249995 0.625000 0.623246 Ti
atom_frac 0.097216 0.625000 0.623246 O
atom_frac 0.249996 0.500000 0.651531 O
atom_frac 0.499997 0.750000 0.376754 O
atom_frac 0.152778 0.875000 0.405039 O
atom_frac 0.249999 0.750000 0.405039 Ti
atom_frac 0.499999 0.875000 0.405039 Ti
atom_frac 0.347220 0.875000 0.405040 O
atom_frac 0.000000 0.750000 0.433324 O
atom_frac 0.249996 0.750000 0.449490 O
atom_frac 0.402776 0.875000 0.477774 O
atom_frac 0.499997 0.750000 0.477775 Ti
atom_frac 0.249997 0.875000 0.477775 Ti
atom_frac 0.097218 0.875000 0.477775 O
atom_frac 0.249999 0.750000 0.506060 O
atom_frac 0.499994 0.750000 0.522225 O
atom_frac 0.152775 0.875000 0.550510 O
atom_frac 0.249996 0.750000 0.550510 Ti
atom_frac 0.499996 0.875000 0.550510 Ti
atom_frac 0.347217 0.875000 0.550511 O
atom_frac 0.499998 0.750000 0.578795 O
atom_frac 0.249993 0.750000 0.594961 O
atom_frac 0.402774 0.875000 0.623245 O
atom_frac 0.499995 0.750000 0.623246 Ti
atom_frac 0.249995 0.875000 0.623246 Ti
atom_frac 0.097216 0.875000 0.623246 O
atom_frac 0.249996 0.750000 0.651531 O
atom_frac 0.999997 0.500000 0.376754 O
atom_frac 0.652778 0.625000 0.405039 O
atom_frac 0.749999 0.500000 0.405039 Ti
atom_frac 0.999999 0.625000 0.405039 Ti
atom_frac 0.847220 0.625000 0.405040 O
atom_frac 0.500000 0.500000 0.433324 O
atom_frac 0.749996 0.500000 0.449490 O
atom_frac 0.902776 0.625000 0.477774 O
atom_frac 0.999997 0.500000 0.477775 Ti
atom_frac 0.749997 0.625000 0.477775 Ti
atom_frac 0.597218 0.625000 0.477775 O
atom_frac 0.749999 0.500000 0.506060 O
atom_frac 0.999994 0.500000 0.522225 O
atom_frac 0.652775 0.625000 0.550510 O
atom_frac 0.749996 0.500000 0.550510 Ti
atom_frac 0.999996 0.625000 0.550510 Ti
atom_frac 0.847217 0.625000 0.550511 O
atom_frac 0.999998 0.500000 0.578795 O
atom_frac 0.749993 0.500000 0.594961 O
atom_frac 0.902774 0.625000 0.623245 O
atom_frac 0.999995 0.500000 0.623246 Ti
atom_frac 0.749995 0.625000 0.623246 Ti
atom_frac 0.597216 0.625000 0.623246 O
atom_frac 0.749996 0.500000 0.651531 O
atom_frac 0.999997 0.750000 0.376754 O
atom_frac 0.652778 0.875000 0.405039 O
atom_frac 0.749999 0.750000 0.405039 Ti
atom_frac 0.999999 0.875000 0.405039 Ti
atom_frac 0.847220 0.875000 0.405040 O
atom_frac 0.500000 0.750000 0.433324 O
atom_frac 0.749996 0.750000 0.449490 O
atom_frac 0.902776 0.875000 0.477774 O
atom_frac 0.999997 0.750000 0.477775 Ti
atom_frac 0.749997 0.875000 0.477775 Ti
atom_frac 0.597218 0.875000 0.477775 O
atom_frac 0.749999 0.750000 0.506060 O
atom_frac 0.999994 0.750000 0.522225 O
atom_frac 0.652775 0.875000 0.550510 O
atom_frac 0.749996 0.750000 0.550510 Ti
atom_frac 0.999996 0.875000 0.550510 Ti
atom_frac 0.847217 0.875000 0.550511 O
atom_frac 0.999998 0.750000 0.578795 O
atom_frac 0.749993 0.750000 0.594961 O
atom_frac 0.902774 0.875000 0.623245 O
atom_frac 0.999995 0.750000 0.623246 Ti
atom_frac 0.749995 0.875000 0.623246 Ti
atom_frac 0.597216 0.875000 0.623246 O
atom_frac 0.749996 0.750000 0.651531 O
