lattice_vector 13.929185 0.000365 0.000000
lattice_vector 0.000365 13.929260 0.000000
lattice_vector 0.000000 0.000000 8.918648

atom_frac 1.000000 0.000000 0.000000 Ti
atom_frac 0.166667 0.166667 0.166667 Ti
atom_frac 0.101853 0.101856 0.000000 O
atom_frac 0.231481 0.231478 0.000000 O
atom_frac 0.064815 0.268521 0.166667 O
atom_frac 0.268518 0.064812 0.166667 O
atom_frac 1.000000 0.000000 0.333333 Ti
atom_frac 0.166667 0.166667 0.500000 Ti
atom_frac 0.101853 0.101856 0.333333 O
atom_frac 0.231481 0.231478 0.333333 O
atom_frac 0.064815 0.268521 0.500000 O
atom_frac 0.268518 0.064812 0.500000 O
atom_frac 1.000000 0.000000 0.666667 Ti
atom_frac 0.166667 0.166667 0.833333 Ti
atom_frac 0.101853 0.101856 0.666667 O
atom_frac 0.231481 0.231478 0.666667 O
atom_frac 0.064815 0.268521 0.833333 O
atom_frac 0.268518 0.064812 0.833333 O
atom_frac 1.000000 0.333333 0.000000 Ti
atom_frac 0.166667 0.500000 0.166667 Ti
atom_frac 0.101853 0.435189 0.000000 O
atom_frac 0.231481 0.564811 0.000000 O
atom_frac 0.064815 0.601854 0.166667 O
atom_frac 0.268518 0.398146 0.166667 O
atom_frac 1.000000 0.333333 0.333333 Ti
atom_frac 0.166667 0.500000 0.500000 Ti
atom_frac 0.101853 0.435189 0.333333 O
atom_frac 0.231481 0.564811 0.333333 O
atom_frac 0.064815 0.601854 0.500000 O
atom_frac 0.268518 0.398146 0.500000 O
atom_frac 1.000000 0.333333 0.666667 Ti
atom_frac 0.166667 0.500000 0.833333 Ti
atom_frac 0.101853 0.435189 0.666667 O
atom_frac 0.231481 0.564811 0.666667 O
atom_frac 0.064815 0.601854 0.833333 O
atom_frac 0.268518 0.398146 0.833333 O
atom_frac 1.000000 0.666667 0.000000 Ti
atom_frac 0.166667 0.833333 0.166667 Ti
atom_frac 0.101853 0.768522 0.000000 O
atom_frac 0.231481 0.898144 0.000000 O
atom_frac 0.064815 0.935188 0.166667 O
atom_frac 0.268518 0.731479 0.166667 O
atom_frac 1.000000 0.666667 0.333333 Ti
atom_frac 0.166667 0.833333 0.500000 Ti
atom_frac 0.101853 0.768522 0.333333 O
atom_frac 0.231481 0.898144 0.333333 O
atom_frac 0.064815 0.935188 0.500000 O
atom_frac 0.268518 0.731479 0.500000 O
atom_frac 1.000000 0.666667 0.666667 Ti
atom_frac 0.166667 0.833333 0.833333 Ti
atom_frac 0.101853 0.768522 0.666667 O
atom_frac 0.231481 0.898144 0.666667 O
atom_frac 0.064815 0.935188 0.833333 O
atom_frac 0.268518 0.731479 0.833333 O
atom_frac 0.333333 0.000000 0.000000 Ti
atom_frac 0.500000 0.166667 0.166667 Ti
atom_frac 0.435186 0.101856 0.000000 O
atom_frac 0.564814 0.231478 0.000000 O
atom_frac 0.398149 0.268521 0.166667 O
atom_frac 0.601851 0.064812 0.166667 O
atom_frac 0.333333 0.000000 0.333333 Ti
atom_frac 0.500000 0.166667 0.500000 Ti
atom_frac 0.435186 0.101856 0.333333 O
atom_frac 0.564814 0.231478 0.333333 O
atom_frac 0.398149 0.268521 0.500000 O
atom_frac 0.601851 0.064812 0.500000 O
atom_frac 0.333333 0.000000 0.666667 Ti
atom_frac 0.500000 0.166667 0.833333 Ti
atom_frac 0.435186 0.101856 0.666667 O
atom_frac 0.564814 0.231478 0.666667 O
atom_frac 0.398149 0.268521 0.833333 O
atom_frac 0.601851 0.064812 0.833333 O
atom_frac 0.333333 0.333333 0.000000 Ti
atom_frac 0.500000 0.500000 0.166667 Ti
atom_frac 0.435186 0.435189 0.000000 O
atom_frac 0.564814 0.564811 0.000000 O
atom_frac 0.398149 0.601854 0.166667 O
atom_frac 0.601851 0.398146 0.166667 O
atom_frac 0.333333 0.333333 0.333333 Ti
atom_frac 0.500000 0.500000 0.500000 Ti
atom_frac 0.435186 0.435189 0.333333 O
atom_frac 0.564814 0.564811 0.333333 O
atom_frac 0.398149 0.601854 0.500000 O
atom_frac 0.601851 0.398146 0.500000 O
atom_frac 0.333333 0.333333 0.666667 Ti
atom_frac 0.500000 0.500000 0.833333 Ti
atom_frac 0.435186 0.435189 0.666667 O
atom_frac 0.564814 0.564811 0.666667 O
atom_frac 0.398149 0.601854 0.833333 O
atom_frac 0.601851 0.398146 0.833333 O
atom_frac 0.333333 0.666667 0.000000 Ti
atom_frac 0.500000 0.833333 0.166667 Ti
atom_frac 0.435186 0.768522 0.000000 O
atom_frac 0.564814 0.898144 0.000000 O
atom_frac 0.398149 0.935188 0.166667 O
atom_frac 0.601851 0.731479 0.166667 O
atom_frac 0.333333 0.666667 0.333333 Ti
atom_frac 0.500000 0.833333 0.500000 Ti
atom_frac 0.435186 0.768522 0.333333 O
atom_frac 0.564814 0.898144 0.333333 O
atom_frac 0.398149 0.935188 0.500000 O
atom_frac 0.601851 0.731479 0.500000 O
atom_frac 0.333333 0.666667 0.666667 Ti
atom_frac 0.500000 0.833333 0.833333 Ti
atom_frac 0.435186 0.768522 0.666667 O
atom_frac 0.564814 0.898144 0.666667 O
atom_frac 0.398149 0.935188 0.833333 O
atom_frac 0.601851 0.731479 0.833333 O
atom_frac 0.666667 0.000000 0.000000 Ti
atom_frac 0.833333 0.166667 0.166667 Ti
atom_frac 0.768519 0.101856 0.000000 O
atom_frac 0.898147 0.231478 0.000000 O
atom_frac 0.731482 0.268521 0.166667 O
atom_frac 0.935185 0.064812 0.166667 O
atom_frac 0.666667 0.000000 0.333333 Ti
atom_frac 0.833333 0.166667 0.500000 Ti
atom_frac 0.768519 0.101856 0.333333 O
atom_frac 0.898147 0.231478 0.333333 O
atom_frac 0.731482 0.268521 0.500000 O
atom_frac 0.935185 0.064812 0.500000 O
atom_frac 0.666667 0.000000 0.666667 Ti
atom_frac 0.833333 0.166667 0.833333 Ti
atom_frac 0.768519 0.101856 0.666667 O
atom_frac 0.898147 0.231478 0.666667 O
atom_frac 0.731482 0.268521 0.833333 O
atom_frac 0.935185 0.064812 0.833333 O
atom_frac 0.666667 0.333333 0.000000 Ti
atom_frac 0.833333 0.500000 0.166667 Ti
atom_frac 0.768519 0.435189 0.000000 O
atom_frac 0.898147 0.564811 0.000000 O
atom_frac 0.731482 0.601854 0.166667 O
atom_frac 0.935185 0.398146 0.166667 O
atom_frac 0.666667 0.333333 0.333333 Ti
atom_frac 0.833333 0.500000 0.500000 Ti
atom_frac 0.768519 0.435189 0.333333 O
atom_frac 0.898147 0.564811 0.333333 O
atom_frac 0.731482 0.601854 0.500000 O
atom_frac 0.935185 0.398146 0.500000 O
atom_frac 0.666667 0.333333 0.666667 Ti
atom_frac 0.833333 0.500000 0.833333 Ti
atom_frac 0.768519 0.435189 0.666667 O
atom_frac 0.898147 0.564811 0.666667 O
atom_frac 0.731482 0.601854 0.833333 O
atom_frac 0.935185 0.398146 0.833333 O
atom_frac 0.666667 0.666667 0.000000 Ti
atom_frac 0.833333 0.833333 0.166667 Ti
atom_frac 0.768519 0.768522 0.000000 O
atom_frac 0.898147 0.898144 0.000000 O
atom_frac 0.731482 0.935188 0.166667 O
atom_frac 0.935185 0.731479 0.166667 O
atom_frac 0.666667 0.666667 0.333333 Ti
atom_frac 0.833333 0.833333 0.500000 Ti
atom_frac 0.768519 0.768522 0.333333 O
atom_frac 0.898147 0.898144 0.333333 O
atom_frac 0.731482 0.935188 0.500000 O
atom_frac 0.935185 0.731479 0.500000 O
atom_frac 0.666667 0.666667 0.666667 Ti
atom_frac 0.833333 0.833333 0.833333 Ti
atom_frac 0.768519 0.768522 0.666667 O
atom_frac 0.898147 0.898144 0.666667 O
atom_frac 0.731482 0.935188 0.833333 O
atom_frac 0.935185 0.731479 0.833333 O
