lattice_vector 19.698380 0.000000 0.000000
lattice_vector 0.000000 17.837296 0.000000
lattice_vector 0.000000 0.000000 65.976178

atom_frac 0.333331 0.000000 0.371444 O
atom_frac 0.101852 0.083334 0.390796 O
atom_frac 0.166666 0.000000 0.390796 Ti
atom_frac 0.333332 0.083334 0.390796 Ti
atom_frac 0.231480 0.083334 0.390797 O
atom_frac 0.000000 0.000000 0.410148 O
atom_frac 0.166664 0.000000 0.421208 O
atom_frac 0.268518 0.083334 0.440560 O
atom_frac 0.333332 0.000000 0.440560 Ti
atom_frac 0.166665 0.083334 0.440560 Ti
atom_frac 0.064812 0.083334 0.440561 O
atom_frac 0.166666 0.000000 0.459912 O
atom_frac 0.333330 0.000000 0.470972 O
atom_frac 0.101850 0.083334 0.490324 O
atom_frac 0.166664 0.000000 0.490324 Ti
atom_frac 0.333331 0.083334 0.490324 Ti
atom_frac 0.231478 0.083334 0.490324 O
atom_frac 0.333332 0.000000 0.509676 O
atom_frac 0.166662 0.000000 0.520736 O
atom_frac 0.268516 0.083334 0.540088 O
atom_frac 0.333330 0.000000 0.540088 Ti
atom_frac 0.166663 0.083334 0.540088 Ti
atom_frac 0.064810 0.083334 0.540088 O
atom_frac 0.166664 0.000000 0.559440 O
atom_frac 0.333328 0.000000 0.570500 O
atom_frac 0.101848 0.083334 0.589851 O
atom_frac 0.166662 0.000000 0.589852 Ti
atom_frac 0.333329 0.083334 0.589852 Ti
atom_frac 0.231476 0.083334 0.589852 O
atom_frac 0.333330 0.000000 0.609204 O
atom_frac 0.166660 0.000000 0.620264 O
atom_frac 0.268514 0.083334 0.639615 O
atom_frac 0.333328 0.000000 0.639616 Ti
atom_frac 0.166661 0.083334 0.639616 Ti
atom_frac 0.064809 0.083334 0.639616 O
atom_frac 0.166662 0.000000 0.658968 O
atom_frac 0.333331 0.166667 0.371444 O
atom_frac 0.101852 0.250000 0.390796 O
atom_frac 0.166666 0.166667 0.390796 Ti
atom_frac 0.333332 0.250000 0.390796 Ti
atom_frac 0.231480 0.250000 0.390797 O
atom_frac 0.000000 0.166667 0.410148 O
atom_frac 0.166664 0.166667 0.421208 O
atom_frac 0.268518 0.250000 0.440560 O
atom_frac 0.333332 0.166667 0.440560 Ti
atom_frac 0.166665 0.250000 0.440560 Ti
atom_frac 0.064812 0.250000 0.440561 O
atom_frac 0.166666 0.166667 0.459912 O
atom_frac 0.333330 0.166667 0.470972 O
atom_frac 0.101850 0.250000 0.490324 O
atom_frac 0.166664 0.166667 0.490324 Ti
atom_frac 0.333331 0.250000 0.490324 Ti
atom_frac 0.231478 0.250000 0.490324 O
atom_frac 0.333332 0.166667 0.509676 O
atom_frac 0.166662 0.166667 0.520736 O
atom_frac 0.268516 0.250000 0.540088 O
atom_frac 0.333330 0.166667 0.540088 Ti
atom_frac 0.166663 0.250000 0.540088 Ti
atom_frac 0.064810 0.250000 0.540088 O
atom_frac 0.166664 0.166667 0.559440 O
atom_frac 0.333328 0.166667 0.570500 O
atom_frac 0.101848 0.250000 0.589851 O
atom_frac 0.166662 0.166667 0.589852 Ti
atom_frac 0.333329 0.250000 0.589852 Ti
atom_frac 0.231476 0.250000 0.589852 O
atom_frac 0.333330 0.166667 0.609204 O
atom_frac 0.166660 0.166667 0.620264 O
atom_frac 0.268514 0.250000 0.639615 O
atom_frac 0.333328 0.166667 0.639616 Ti
atom_frac 0.166661 0.250000 0.639616 Ti
atom_frac 0.064809 0.250000 0.639616 O
atom_frac 0.166662 0.166667 0.658968 O
atom_frac 0.333331 0.333334 0.371444 O
atom_frac 0.101852 0.416667 0.390796 O
atom_frac 0.166666 0.333334 0.390796 Ti
atom_frac 0.333332 0.416667 0.390796 Ti
atom_frac 0.231480 0.416667 0.390797 O
atom_frac 0.000000 0.333334 0.410148 O
atom_frac 0.166664 0.333334 0.421208 O
atom_frac 0.268518 0.416667 0.440560 O
atom_frac 0.333332 0.333334 0.440560 Ti
atom_frac 0.166665 0.416667 0.440560 Ti
atom_frac 0.064812 0.416667 0.440561 O
atom_frac 0.166666 0.333334 0.459912 O
atom_frac 0.333330 0.333334 0.470972 O
atom_frac 0.101850 0.416667 0.490324 O
atom_frac 0.166664 0.333334 0.490324 Ti
atom_frac 0.333331 0.416667 0.490324 Ti
atom_frac 0.231478 0.416667 0.490324 O
atom_frac 0.333332 0.333334 0.509676 O
atom_frac 0.166662 0.333334 0.520736 O
atom_frac 0.268516 0.416667 0.540088 O
atom_frac 0.333330 0.333334 0.540088 Ti
atom_frac 0.166663 0.416667 0.540088 Ti
atom_frac 0.064810 0.416667 0.540088 O
atom_frac 0.166664 0.333334 0.559440 O
atom_frac 0.333328 0.333334 0.570500 O
atom_frac 0.101848 0.416667 0.589851 O
atom_frac 0.166662 0.333334 0.589852 Ti
atom_frac 0.333329 0.416667 0.589852 Ti
atom_frac 0.231476 0.416667 0.589852 O
atom_frac 0.333330 0.333334 0.609204 O
atom_frac 0.166660 0.333334 0.620264 O
atom_frac 0.268514 0.416667 0.639615 O
atom_frac 0.333328 0.333334 0.639616 Ti
atom_frac 0.166661 0.416667 0.639616 Ti
atom_frac 0.064809 0.416667 0.639616 O
atom_frac 0.166662 0.333334 0.658968 O
atom_frac 0.666665 0.000000 0.371444 O
atom_frac 0.435185 0.083334 0.390796 O
atom_frac 0.499999 0.000000 0.390796 Ti
atom_frac 0.666666 0.083334 0.390796 Ti
atom_frac 0.564813 0.083334 0.390797 O
atom_frac 0.333334 0.000000 0.410148 O
atom_frac 0.499997 0.000000 0.421208 O
atom_frac 0.601851 0.083334 0.440560 O
atom_frac 0.666665 0.000000 0.440560 Ti
atom_frac 0.499998 0.083334 0.440560 Ti
atom_frac 0.398145 0.083334 0.440561 O
atom_frac 0.499999 0.000000 0.459912 O
atom_frac 0.666663 0.000000 0.470972 O
atom_frac 0.435183 0.083334 0.490324 O
atom_frac 0.499997 0.000000 0.490324 Ti
atom_frac 0.666664 0.083334 0.490324 Ti
atom_frac 0.564811 0.083334 0.490324 O
atom_frac 0.666665 0.000000 0.509676 O
atom_frac 0.499995 0.000000 0.520736 O
atom_frac 0.601849 0.083334 0.540088 O
atom_frac 0.666663 0.000000 0.540088 Ti
atom_frac 0.499996 0.083334 0.540088 Ti
atom_frac 0.398144 0.083334 0.540088 O
atom_frac 0.499998 0.000000 0.559440 O
atom_frac 0.666661 0.000000 0.570500 O
atom_frac 0.435182 0.083334 0.589851 O
atom_frac 0.499996 0.000000 0.589852 Ti
atom_frac 0.666662 0.083334 0.589852 Ti
atom_frac 0.564809 0.083334 0.589852 O
atom_frac 0.666663 0.000000 0.609204 O
atom_frac 0.499993 0.000000 0.620264 O
atom_frac 0.601847 0.083334 0.639615 O
atom_frac 0.666661 0.000000 0.639616 Ti
atom_frac 0.499995 0.083334 0.639616 Ti
atom_frac 0.398142 0.083334 0.639616 O
atom_frac 0.499996 0.000000 0.658968 O
atom_frac 0.666665 0.166667 0.371444 O
atom_frac 0.435185 0.250000 0.390796 O
atom_frac 0.499999 0.166667 0.390796 Ti
atom_frac 0.666666 0.250000 0.390796 Ti
atom_frac 0.564813 0.250000 0.390797 O
atom_frac 0.333334 0.166667 0.410148 O
atom_frac 0.499997 0.166667 0.421208 O
atom_frac 0.601851 0.250000 0.440560 O
atom_frac 0.666665 0.166667 0.440560 Ti
atom_frac 0.499998 0.250000 0.440560 Ti
atom_frac 0.398145 0.250000 0.440561 O
atom_frac 0.499999 0.166667 0.459912 O
atom_frac 0.666663 0.166667 0.470972 O
atom_frac 0.435183 0.250000 0.490324 O
atom_frac 0.499997 0.166667 0.490324 Ti
atom_frac 0.666664 0.250000 0.490324 Ti
atom_frac 0.564811 0.250000 0.490324 O
atom_frac 0.666665 0.166667 0.509676 O
atom_frac 0.499995 0.166667 0.520736 O
atom_frac 0.601849 0.250000 0.540088 O
atom_frac 0.666663 0.166667 0.540088 Ti
atom_frac 0.499996 0.250000 0.540088 Ti
atom_frac 0.398144 0.250000 0.540088 O
atom_frac 0.499998 0.166667 0.559440 O
atom_frac 0.666661 0.166667 0.570500 O
atom_frac 0.435182 0.250000 0.589851 O
atom_frac 0.499996 0.166667 0.589852 Ti
atom_frac 0.666662 0.250000 0.589852 Ti
atom_frac 0.564809 0.250000 0.589852 O
atom_frac 0.666663 0.166667 0.609204 O
atom_frac 0.499993 0.166667 0.620264 O
atom_frac 0.601847 0.250000 0.639615 O
atom_frac 0.666661 0.166667 0.639616 Ti
atom_frac 0.499995 0.250000 0.639616 Ti
atom_frac 0.398142 0.250000 0.639616 O
atom_frac 0.499996 0.166667 0.658968 O
atom_frac 0.666665 0.333334 0.371444 O
atom_frac 0.435185 0.416667 0.390796 O
atom_frac 0.499999 0.333334 0.390796 Ti
atom_frac 0.666666 0.416667 0.390796 Ti
atom_frac 0.564813 0.416667 0.390797 O
atom_frac 0.333334 0.333334 0.410148 O
atom_frac 0.499997 0.333334 0.421208 O
atom_frac 0.601851 0.416667 0.440560 O
atom_frac 0.666665 0.333334 0.440560 Ti
atom_frac 0.499998 0.416667 0.440560 Ti
atom_frac 0.398145 0.416667 0.440561 O
atom_frac 0.499999 0.333334 0.459912 O
atom_frac 0.666663 0.333334 0.470972 O
atom_frac 0.435183 0.416667 0.490324 O
atom_frac 0.499997 0.333334 0.490324 Ti
atom_frac 0.666664 0.416667 0.490324 Ti
atom_frac 0.564811 0.416667 0.490324 O
atom_frac 0.666665 0.333334 0.509676 O
atom_frac 0.499995 0.333334 0.520736 O
atom_frac 0.601849 0.416667 0.540088 O
atom_frac 0.666663 0.333334 0.540088 Ti
atom_frac 0.499996 0.416667 0.540088 Ti
atom_frac 0.398144 0.416667 0.540088 O
atom_frac 0.499998 0.333334 0.559440 O
atom_frac 0.666661 0.333334 0.570500 O
atom_frac 0.435182 0.416667 0.589851 O
atom_frac 0.499996 0.333334 0.589852 Ti
atom_frac 0.666662 0.416667 0.589852 Ti
atom_frac 0.564809 0.416667 0.589852 O
atom_frac 0.666663 0.333334 0.609204 O
atom_frac 0.499993 0.333334 0.620264 O
atom_frac 0.601847 0.416667 0.639615 O
atom_frac 0.666661 0.333334 0.639616 Ti
atom_frac 0.499995 0.416667 0.639616 Ti
atom_frac 0.398142 0.416667 0.639616 O
atom_frac 0.499996 0.333334 0.658968 O
atom_frac 0.999998 0.000000 0.371444 O
atom_frac 0.768519 0.083334 0.390796 O
atom_frac 0.833332 0.000000 0.390796 Ti
atom_frac 0.999999 0.083334 0.390796 Ti
atom_frac 0.898146 0.083334 0.390797 O
atom_frac 0.666667 0.000000 0.410148 O
atom_frac 0.833330 0.000000 0.421208 O
atom_frac 0.935184 0.083334 0.440560 O
atom_frac 0.999998 0.000000 0.440560 Ti
atom_frac 0.833332 0.083334 0.440560 Ti
atom_frac 0.731479 0.083334 0.440561 O
atom_frac 0.833333 0.000000 0.459912 O
atom_frac 0.999996 0.000000 0.470972 O
atom_frac 0.768517 0.083334 0.490324 O
atom_frac 0.833331 0.000000 0.490324 Ti
atom_frac 0.999997 0.083334 0.490324 Ti
atom_frac 0.898145 0.083334 0.490324 O
atom_frac 0.999998 0.000000 0.509676 O
atom_frac 0.833329 0.000000 0.520736 O
atom_frac 0.935183 0.083334 0.540088 O
atom_frac 0.999996 0.000000 0.540088 Ti
atom_frac 0.833330 0.083334 0.540088 Ti
atom_frac 0.731477 0.083334 0.540088 O
atom_frac 0.833331 0.000000 0.559440 O
atom_frac 0.999994 0.000000 0.570500 O
atom_frac 0.768515 0.083334 0.589851 O
atom_frac 0.833329 0.000000 0.589852 Ti
atom_frac 0.999996 0.083334 0.589852 Ti
atom_frac 0.898143 0.083334 0.589852 O
atom_frac 0.999997 0.000000 0.609204 O
atom_frac 0.833327 0.000000 0.620264 O
atom_frac 0.935181 0.083334 0.639615 O
atom_frac 0.999995 0.000000 0.639616 Ti
atom_frac 0.833328 0.083334 0.639616 Ti
atom_frac 0.731475 0.083334 0.639616 O
atom_frac 0.833329 0.000000 0.658968 O
atom_frac 0.999998 0.166667 0.371444 O
atom_frac 0.768519 0.250000 0.390796 O
atom_frac 0.833332 0.166667 0.390796 Ti
atom_frac 0.999999 0.250000 0.390796 Ti
atom_frac 0.898146 0.250000 0.390797 O
atom_frac 0.666667 0.166667 0.410148 O
atom_frac 0.833330 0.166667 0.421208 O
atom_frac 0.935184 0.250000 0.440560 O
atom_frac 0.999998 0.166667 0.440560 Ti
atom_frac 0.833332 0.250000 0.440560 Ti
atom_frac 0.731479 0.250000 0.440561 O
atom_frac 0.833333 0.166667 0.459912 O
atom_frac 0.999996 0.166667 0.470972 O
atom_frac 0.768517 0.250000 0.490324 O
atom_frac 0.833331 0.166667 0.490324 Ti
atom_frac 0.999997 0.250000 0.490324 Ti
atom_frac 0.898145 0.250000 0.490324 O
atom_frac 0.999998 0.166667 0.509676 O
atom_frac 0.833329 0.166667 0.520736 O
atom_frac 0.935183 0.250000 0.540088 O
atom_frac 0.999996 0.166667 0.540088 Ti
atom_frac 0.833330 0.250000 0.540088 Ti
atom_frac 0.731477 0.250000 0.540088 O
atom_frac 0.833331 0.166667 0.559440 O
atom_frac 0.999994 0.166667 0.570500 O
atom_frac 0.768515 0.250000 0.589851 O
atom_frac 0.833329 0.166667 0.589852 Ti
atom_frac 0.999996 0.250000 0.589852 Ti
atom_frac 0.898143 0.250000 0.589852 O
atom_frac 0.999997 0.166667 0.609204 O
atom_frac 0.833327 0.166667 0.620264 O
atom_frac 0.935181 0.250000 0.639615 O
atom_frac 0.999995 0.166667 0.639616 Ti
atom_frac 0.833328 0.250000 0.639616 Ti
atom_frac 0.731475 0.250000 0.639616 O
atom_frac 0.833329 0.166667 0.658968 O
atom_frac 0.999998 0.333334 0.371444 O
atom_frac 0.768519 0.416667 0.390796 O
atom_frac 0.833332 0.333334 0.390796 Ti
atom_frac 0.999999 0.416667 0.390796 Ti
atom_frac 0.898146 0.416667 0.390797 O
atom_frac 0.666667 0.333334 0.410148 O
atom_frac 0.833330 0.333334 0.421208 O
atom_frac 0.935184 0.416667 0.440560 O
atom_frac 0.999998 0.333334 0.440560 Ti
atom_frac 0.833332 0.416667 0.440560 Ti
atom_frac 0.731479 0.416667 0.440561 O
atom_frac 0.833333 0.333334 0.459912 O
atom_frac 0.999996 0.333334 0.470972 O
atom_frac 0.768517 0.416667 0.490324 O
atom_frac 0.833331 0.333334 0.490324 Ti
atom_frac 0.999997 0.416667 0.490324 Ti
atom_frac 0.898145 0.416667 0.490324 O
atom_frac 0.999998 0.333334 0.509676 O
atom_frac 0.833329 0.333334 0.520736 O
atom_frac 0.935183 0.416667 0.540088 O
atom_frac 0.999996 0.333334 0.540088 Ti
atom_frac 0.833330 0.416667 0.540088 Ti
atom_frac 0.731477 0.416667 0.540088 O
atom_frac 0.833331 0.333334 0.559440 O
atom_frac 0.999994 0.333334 0.570500 O
atom_frac 0.768515 0.416667 0.589851 O
atom_frac 0.833329 0.333334 0.589852 Ti
atom_frac 0.999996 0.416667 0.589852 Ti
atom_frac 0.898143 0.416667 0.589852 O
atom_frac 0.999997 0.333334 0.609204 O
atom_frac 0.833327 0.333334 0.620264 O
atom_frac 0.935181 0.416667 0.639615 O
atom_frac 0.999995 0.333334 0.639616 Ti
atom_frac 0.833328 0.416667 0.639616 Ti
atom_frac 0.731475 0.416667 0.639616 O
atom_frac 0.833329 0.333334 0.658968 O
atom_frac 0.333331 0.500000 0.371444 O
atom_frac 0.101852 0.583334 0.390796 O
atom_frac 0.166666 0.500000 0.390796 Ti
atom_frac 0.333332 0.583334 0.390796 Ti
atom_frac 0.231480 0.583334 0.390797 O
atom_frac 0.000000 0.500000 0.410148 O
atom_frac 0.166664 0.500000 0.421208 O
atom_frac 0.268518 0.583334 0.440560 O
atom_frac 0.333332 0.500000 0.440560 Ti
atom_frac 0.166665 0.583334 0.440560 Ti
atom_frac 0.064812 0.583334 0.440561 O
atom_frac 0.166666 0.500000 0.459912 O
atom_frac 0.333330 0.500000 0.470972 O
atom_frac 0.101850 0.583334 0.490324 O
atom_frac 0.166664 0.500000 0.490324 Ti
atom_frac 0.333331 0.583334 0.490324 Ti
atom_frac 0.231478 0.583334 0.490324 O
atom_frac 0.333332 0.500000 0.509676 O
atom_frac 0.166662 0.500000 0.520736 O
atom_frac 0.268516 0.583334 0.540088 O
atom_frac 0.333330 0.500000 0.540088 Ti
atom_frac 0.166663 0.583334 0.540088 Ti
atom_frac 0.064810 0.583334 0.540088 O
atom_frac 0.166664 0.500000 0.559440 O
atom_frac 0.333328 0.500000 0.570500 O
atom_frac 0.101848 0.583334 0.589851 O
atom_frac 0.166662 0.500000 0.589852 Ti
atom_frac 0.333329 0.583334 0.589852 Ti
atom_frac 0.231476 0.583334 0.589852 O
atom_frac 0.333330 0.500000 0.609204 O
atom_frac 0.166660 0.500000 0.620264 O
atom_frac 0.268514 0.583334 0.639615 O
atom_frac 0.333328 0.500000 0.639616 Ti
atom_frac 0.166661 0.583334 0.639616 Ti
atom_frac 0.064809 0.583334 0.639616 O
atom_frac 0.166662 0.500000 0.658968 O
atom_frac 0.333331 0.666667 0.371444 O
atom_frac 0.101852 0.750000 0.390796 O
atom_frac 0.166666 0.666667 0.390796 Ti
atom_frac 0.333332 0.750000 0.390796 Ti
atom_frac 0.231480 0.750000 0.390797 O
atom_frac 0.000000 0.666667 0.410148 O
atom_frac 0.166664 0.666667 0.421208 O
atom_frac 0.268518 0.750000 0.440560 O
atom_frac 0.333332 0.666667 0.440560 Ti
atom_frac 0.166665 0.750000 0.440560 Ti
atom_frac 0.064812 0.750000 0.440561 O
atom_frac 0.166666 0.666667 0.459912 O
atom_frac 0.333330 0.666667 0.470972 O
atom_frac 0.101850 0.750000 0.490324 O
atom_frac 0.166664 0.666667 0.490324 Ti
atom_frac 0.333331 0.750000 0.490324 Ti
atom_frac 0.231478 0.750000 0.490324 O
atom_frac 0.333332 0.666667 0.509676 O
atom_frac 0.166662 0.666667 0.520736 O
atom_frac 0.268516 0.750000 0.540088 O
atom_frac 0.333330 0.666667 0.540088 Ti
atom_frac 0.166663 0.750000 0.540088 Ti
atom_frac 0.064810 0.750000 0.540088 O
atom_frac 0.166664 0.666667 0.559440 O
atom_frac 0.333328 0.666667 0.570500 O
atom_frac 0.101848 0.750000 0.589851 O
atom_frac 0.166662 0.666667 0.589852 Ti
atom_frac 0.333329 0.750000 0.589852 Ti
atom_frac 0.231476 0.750000 0.589852 O
atom_frac 0.333330 0.666667 0.609204 O
atom_frac 0.166660 0.666667 0.620264 O
atom_frac 0.268514 0.750000 0.639615 O
atom_frac 0.333328 0.666667 0.639616 Ti
atom_frac 0.166661 0.750000 0.639616 Ti
atom_frac 0.064809 0.750000 0.639616 O
atom_frac 0.166662 0.666667 0.658968 O
atom_frac 0.333331 0.833334 0.371444 O
atom_frac 0.101852 0.916667 0.390796 O
atom_frac 0.166666 0.833334 0.390796 Ti
atom_frac 0.333332 0.916667 0.390796 Ti
atom_frac 0.231480 0.916667 0.390797 O
atom_frac 0.000000 0.833334 0.410148 O
atom_frac 0.166664 0.833334 0.421208 O
atom_frac 0.268518 0.916667 0.440560 O
atom_frac 0.333332 0.833334 0.440560 Ti
atom_frac 0.166665 0.916667 0.440560 Ti
atom_frac 0.064812 0.916667 0.440561 O
atom_frac 0.166666 0.833334 0.459912 O
atom_frac 0.333330 0.833334 0.470972 O
atom_frac 0.101850 0.916667 0.490324 O
atom_frac 0.166664 0.833334 0.490324 Ti
atom_frac 0.333331 0.916667 0.490324 Ti
atom_frac 0.231478 0.916667 0.490324 O
atom_frac 0.333332 0.833334 0.509676 O
atom_frac 0.166662 0.833334 0.520736 O
atom_frac 0.268516 0.916667 0.540088 O
atom_frac 0.333330 0.833334 0.540088 Ti
atom_frac 0.166663 0.916667 0.540088 Ti
atom_frac 0.064810 0.916667 0.540088 O
atom_frac 0.166664 0.833334 0.559440 O
atom_frac 0.333328 0.833334 0.570500 O
atom_frac 0.101848 0.916667 0.589851 O
atom_frac 0.166662 0.833334 0.589852 Ti
atom_frac 0.333329 0.916667 0.589852 Ti
atom_frac 0.231476 0.916667 0.589852 O
atom_frac 0.333330 0.833334 0.609204 O
atom_frac 0.166660 0.833334 0.620264 O
atom_frac 0.268514 0.916667 0.639615 O
atom_frac 0.333328 0.833334 0.639616 Ti
atom_frac 0.166661 0.916667 0.639616 Ti
atom_frac 0.064809 0.916667 0.639616 O
atom_frac 0.166662 0.833334 0.658968 O
atom_frac 0.666665 0.500000 0.371444 O
atom_frac 0.435185 0.583334 0.390796 O
atom_frac 0.499999 0.500000 0.390796 Ti
atom_frac 0.666666 0.583334 0.390796 Ti
atom_frac 0.564813 0.583334 0.390797 O
atom_frac 0.333334 0.500000 0.410148 O
atom_frac 0.499997 0.500000 0.421208 O
atom_frac 0.601851 0.583334 0.440560 O
atom_frac 0.666665 0.500000 0.440560 Ti
atom_frac 0.499998 0.583334 0.440560 Ti
atom_frac 0.398145 0.583334 0.440561 O
atom_frac 0.499999 0.500000 0.459912 O
atom_frac 0.666663 0.500000 0.470972 O
atom_frac 0.435183 0.583334 0.490324 O
atom_frac 0.499997 0.500000 0.490324 Ti
atom_frac 0.666664 0.583334 0.490324 Ti
atom_frac 0.564811 0.583334 0.490324 O
atom_frac 0.666665 0.500000 0.509676 O
atom_frac 0.499995 0.500000 0.520736 O1
atom_frac 0.601849 0.583334 0.540088 O
atom_frac 0.666663 0.500000 0.540088 Ti
atom_frac 0.499996 0.583334 0.540088 Ti
atom_frac 0.398144 0.583334 0.540088 O
atom_frac 0.499998 0.500000 0.559440 O
atom_frac 0.666661 0.500000 0.570500 O
atom_frac 0.435182 0.583334 0.589851 O
atom_frac 0.499996 0.500000 0.589852 Ti
atom_frac 0.666662 0.583334 0.589852 Ti
atom_frac 0.564809 0.583334 0.589852 O
atom_frac 0.666663 0.500000 0.609204 O
atom_frac 0.499993 0.500000 0.620264 O
atom_frac 0.601847 0.583334 0.639615 O
atom_frac 0.666661 0.500000 0.639616 Ti
atom_frac 0.499995 0.583334 0.639616 Ti
atom_frac 0.398142 0.583334 0.639616 O
atom_frac 0.499996 0.500000 0.658968 O
atom_frac 0.666665 0.666667 0.371444 O
atom_frac 0.435185 0.750000 0.390796 O
atom_frac 0.499999 0.666667 0.390796 Ti
atom_frac 0.666666 0.750000 0.390796 Ti
atom_frac 0.564813 0.750000 0.390797 O
atom_frac 0.333334 0.666667 0.410148 O
atom_frac 0.499997 0.666667 0.421208 O
atom_frac 0.601851 0.750000 0.440560 O
atom_frac 0.666665 0.666667 0.440560 Ti
atom_frac 0.499998 0.750000 0.440560 Ti
atom_frac 0.398145 0.750000 0.440561 O
atom_frac 0.499999 0.666667 0.459912 O
atom_frac 0.666663 0.666667 0.470972 O
atom_frac 0.435183 0.750000 0.490324 O
atom_frac 0.499997 0.666667 0.490324 Ti
atom_frac 0.666664 0.750000 0.490324 Ti
atom_frac 0.564811 0.750000 0.490324 O
atom_frac 0.666665 0.666667 0.509676 O
atom_frac 0.499995 0.666667 0.520736 O
atom_frac 0.601849 0.750000 0.540088 O
atom_frac 0.666663 0.666667 0.540088 Ti
atom_frac 0.499996 0.750000 0.540088 Ti
atom_frac 0.398144 0.750000 0.540088 O
atom_frac 0.499998 0.666667 0.559440 O
atom_frac 0.666661 0.666667 0.570500 O
atom_frac 0.435182 0.750000 0.589851 O
atom_frac 0.499996 0.666667 0.589852 Ti
atom_frac 0.666662 0.750000 0.589852 Ti
atom_frac 0.564809 0.750000 0.589852 O
atom_frac 0.666663 0.666667 0.609204 O
atom_frac 0.499993 0.666667 0.620264 O
atom_frac 0.601847 0.750000 0.639615 O
atom_frac 0.666661 0.666667 0.639616 Ti
atom_frac 0.499995 0.750000 0.639616 Ti
atom_frac 0.398142 0.750000 0.639616 O
atom_frac 0.499996 0.666667 0.658968 O
atom_frac 0.666665 0.833334 0.371444 O
atom_frac 0.435185 0.916667 0.390796 O
atom_frac 0.499999 0.833334 0.390796 Ti
atom_frac 0.666666 0.916667 0.390796 Ti
atom_frac 0.564813 0.916667 0.390797 O
atom_frac 0.333334 0.833334 0.410148 O
atom_frac 0.499997 0.833334 0.421208 O
atom_frac 0.601851 0.916667 0.440560 O
atom_frac 0.666665 0.833334 0.440560 Ti
atom_frac 0.499998 0.916667 0.440560 Ti
atom_frac 0.398145 0.916667 0.440561 O
atom_frac 0.499999 0.833334 0.459912 O
atom_frac 0.666663 0.833334 0.470972 O
atom_frac 0.435183 0.916667 0.490324 O
atom_frac 0.499997 0.833334 0.490324 Ti
atom_frac 0.666664 0.916667 0.490324 Ti
atom_frac 0.564811 0.916667 0.490324 O
atom_frac 0.666665 0.833334 0.509676 O
atom_frac 0.499995 0.833334 0.520736 O
atom_frac 0.601849 0.916667 0.540088 O
atom_frac 0.666663 0.833334 0.540088 Ti
atom_frac 0.499996 0.916667 0.540088 Ti
atom_frac 0.398144 0.916667 0.540088 O
atom_frac 0.499998 0.833334 0.559440 O
atom_frac 0.666661 0.833334 0.570500 O
atom_frac 0.435182 0.916667 0.589851 O
atom_frac 0.499996 0.833334 0.589852 Ti
atom_frac 0.666662 0.916667 0.589852 Ti
atom_frac 0.564809 0.916667 0.589852 O
atom_frac 0.666663 0.833334 0.609204 O
atom_frac 0.499993 0.833334 0.620264 O
atom_frac 0.601847 0.916667 0.639615 O
atom_frac 0.666661 0.833334 0.639616 Ti
atom_frac 0.499995 0.916667 0.639616 Ti
atom_frac 0.398142 0.916667 0.639616 O
atom_frac 0.499996 0.833334 0.658968 O
atom_frac 0.999998 0.500000 0.371444 O
atom_frac 0.768519 0.583334 0.390796 O
atom_frac 0.833332 0.500000 0.390796 Ti
atom_frac 0.999999 0.583334 0.390796 Ti
atom_frac 0.898146 0.583334 0.390797 O
atom_frac 0.666667 0.500000 0.410148 O
atom_frac 0.833330 0.500000 0.421208 O
atom_frac 0.935184 0.583334 0.440560 O
atom_frac 0.999998 0.500000 0.440560 Ti
atom_frac 0.833332 0.583334 0.440560 Ti
atom_frac 0.731479 0.583334 0.440561 O
atom_frac 0.833333 0.500000 0.459912 O
atom_frac 0.999996 0.500000 0.470972 O
atom_frac 0.768517 0.583334 0.490324 O
atom_frac 0.833331 0.500000 0.490324 Ti
atom_frac 0.999997 0.583334 0.490324 Ti
atom_frac 0.898145 0.583334 0.490324 O
atom_frac 0.999998 0.500000 0.509676 O
atom_frac 0.833329 0.500000 0.520736 O
atom_frac 0.935183 0.583334 0.540088 O
atom_frac 0.999996 0.500000 0.540088 Ti
atom_frac 0.833330 0.583334 0.540088 Ti
atom_frac 0.731477 0.583334 0.540088 O
atom_frac 0.833331 0.500000 0.559440 O
atom_frac 0.999994 0.500000 0.570500 O
atom_frac 0.768515 0.583334 0.589851 O
atom_frac 0.833329 0.500000 0.589852 Ti
atom_frac 0.999996 0.583334 0.589852 Ti
atom_frac 0.898143 0.583334 0.589852 O
atom_frac 0.999997 0.500000 0.609204 O
atom_frac 0.833327 0.500000 0.620264 O
atom_frac 0.935181 0.583334 0.639615 O
atom_frac 0.999995 0.500000 0.639616 Ti
atom_frac 0.833328 0.583334 0.639616 Ti
atom_frac 0.731475 0.583334 0.639616 O
atom_frac 0.833329 0.500000 0.658968 O
atom_frac 0.999998 0.666667 0.371444 O
atom_frac 0.768519 0.750000 0.390796 O
atom_frac 0.833332 0.666667 0.390796 Ti
atom_frac 0.999999 0.750000 0.390796 Ti
atom_frac 0.898146 0.750000 0.390797 O
atom_frac 0.666667 0.666667 0.410148 O
atom_frac 0.833330 0.666667 0.421208 O
atom_frac 0.935184 0.750000 0.440560 O
atom_frac 0.999998 0.666667 0.440560 Ti
atom_frac 0.833332 0.750000 0.440560 Ti
atom_frac 0.731479 0.750000 0.440561 O
atom_frac 0.833333 0.666667 0.459912 O
atom_frac 0.999996 0.666667 0.470972 O
atom_frac 0.768517 0.750000 0.490324 O
atom_frac 0.833331 0.666667 0.490324 Ti
atom_frac 0.999997 0.750000 0.490324 Ti
atom_frac 0.898145 0.750000 0.490324 O
atom_frac 0.999998 0.666667 0.509676 O
atom_frac 0.833329 0.666667 0.520736 O
atom_frac 0.935183 0.750000 0.540088 O
atom_frac 0.999996 0.666667 0.540088 Ti
atom_frac 0.833330 0.750000 0.540088 Ti
atom_frac 0.731477 0.750000 0.540088 O
atom_frac 0.833331 0.666667 0.559440 O
atom_frac 0.999994 0.666667 0.570500 O
atom_frac 0.768515 0.750000 0.589851 O
atom_frac 0.833329 0.666667 0.589852 Ti
atom_frac 0.999996 0.750000 0.589852 Ti
atom_frac 0.898143 0.750000 0.589852 O
atom_frac 0.999997 0.666667 0.609204 O
atom_frac 0.833327 0.666667 0.620264 O
atom_frac 0.935181 0.750000 0.639615 O
atom_frac 0.999995 0.666667 0.639616 Ti
atom_frac 0.833328 0.750000 0.639616 Ti
atom_frac 0.731475 0.750000 0.639616 O
atom_frac 0.833329 0.666667 0.658968 O
atom_frac 0.999998 0.833334 0.371444 O
atom_frac 0.768519 0.916667 0.390796 O
atom_frac 0.833332 0.833334 0.390796 Ti
atom_frac 0.999999 0.916667 0.390796 Ti
atom_frac 0.898146 0.916667 0.390797 O
atom_frac 0.666667 0.833334 0.410148 O
atom_frac 0.833330 0.833334 0.421208 O
atom_frac 0.935184 0.916667 0.440560 O
atom_frac 0.999998 0.833334 0.440560 Ti
atom_frac 0.833332 0.916667 0.440560 Ti
atom_frac 0.731479 0.916667 0.440561 O
atom_frac 0.833333 0.833334 0.459912 O
atom_frac 0.999996 0.833334 0.470972 O
atom_frac 0.768517 0.916667 0.490324 O
atom_frac 0.833331 0.833334 0.490324 Ti
atom_frac 0.999997 0.916667 0.490324 Ti
atom_frac 0.898145 0.916667 0.490324 O
atom_frac 0.999998 0.833334 0.509676 O
atom_frac 0.833329 0.833334 0.520736 O
atom_frac 0.935183 0.916667 0.540088 O
atom_frac 0.999996 0.833334 0.540088 Ti
atom_frac 0.833330 0.916667 0.540088 Ti
atom_frac 0.731477 0.916667 0.540088 O
atom_frac 0.833331 0.833334 0.559440 O
atom_frac 0.999994 0.833334 0.570500 O
atom_frac 0.768515 0.916667 0.589851 O
atom_frac 0.833329 0.833334 0.589852 Ti
atom_frac 0.999996 0.916667 0.589852 Ti
atom_frac 0.898143 0.916667 0.589852 O
atom_frac 0.999997 0.833334 0.609204 O
atom_frac 0.833327 0.833334 0.620264 O
atom_frac 0.935181 0.916667 0.639615 O
atom_frac 0.999995 0.833334 0.639616 Ti
atom_frac 0.833328 0.916667 0.639616 Ti
atom_frac 0.731475 0.916667 0.639616 O
atom_frac 0.833329 0.833334 0.658968 O
