# 
# This is the geometry file that corresponds to the current relaxation step.
# If you do not want this file to be written, set the "write_restart_geometry" flag to .false.
#  aims_uuid : 9BA3B050-7FA5-4173-AC7B-B01C22C4F404                                
# 
lattice_vector      9.28630678      0.00002283     -0.00000001
lattice_vector      0.00002292      9.28637558     -0.00000001
lattice_vector     -0.00000004     -0.00000009      5.94535168
atom_frac       0.00001042      0.00001109     -0.00006141 Ti
atom_frac       0.25000609      0.25000588      0.25002440 Ti
atom_frac       0.15277473      0.15278038     -0.00001470 O
atom_frac       0.34722235      0.34721380     -0.00001473 O
atom_frac       0.09722691      0.40278923      0.25002243 O
atom_frac       0.40278389      0.09721906      0.25002244 O
atom_frac       0.00001042      0.00001109      0.49993931 Ti
atom_frac       0.25000663      0.25000510      0.75002440 Ti
atom_frac       0.15277470      0.15278039      0.49998928 O
atom_frac       0.34722234      0.34721383      0.49998931 O
atom_frac       0.09723020      0.40278554      0.75002244 O
atom_frac       0.40277938      0.09722317      0.75002242 O
atom_frac       0.00001086      0.50002681      0.00006322 Ti
atom_frac       0.25001347      0.75001190      0.24997562 Ti
atom_frac       0.15276750      0.65277937      0.00001467 O
atom_frac       0.34722125      0.84721002      0.00001464 O
atom_frac       0.09723729      0.90278836      0.24997758 O
atom_frac       0.40278339      0.59722962      0.24997758 O
atom_frac       0.00001087      0.50002681      0.50005885 Ti
atom_frac       0.25001336      0.75001136      0.74997562 Ti
atom_frac       0.15276750      0.65277936      0.50001078 O
atom_frac       0.34722126      0.84721002      0.50001081 O
atom_frac       0.09723256      0.90279194      0.74997759 O
atom_frac       0.40278670      0.59722516      0.74997760 O
atom_frac       0.50002657      0.00001063      0.00007883 Ti
atom_frac       0.75001320      0.25001151      0.24997563 Ti
atom_frac       0.65277432      0.15277314      0.00001464 O
atom_frac       0.84721396      0.34721674      0.00001470 O
atom_frac       0.59723558      0.40278585      0.24997759 O
atom_frac       0.90278353      0.09723140      0.24997759 O
atom_frac       0.50002657      0.00001063      0.50004326 Ti
atom_frac       0.75001331      0.25001207      0.74997563 Ti
atom_frac       0.65277431      0.15277314      0.50001083 O
atom_frac       0.84721396      0.34721675      0.50001078 O
atom_frac       0.59723228      0.40279032      0.74997761 O
atom_frac       0.90278828      0.09722783      0.74997761 O
atom_frac       0.50001506      0.50000689     -0.00005619 Ti
atom_frac       0.75000672      0.75000519      0.25002435 Ti
atom_frac       0.65277571      0.65277678     -0.00001476 O
atom_frac       0.84722148      0.84721763     -0.00001475 O
atom_frac       0.59722846      0.90278389      0.25002240 O
atom_frac       0.90278138      0.59722504      0.25002238 O
atom_frac       0.50001506      0.50000689      0.49993407 Ti
atom_frac       0.75000616      0.75000596      0.75002435 Ti
atom_frac       0.65277572      0.65277676      0.49998926 O
atom_frac       0.84722151      0.84721763      0.49998925 O
atom_frac       0.59723295      0.90277978      0.75002238 O
atom_frac       0.90277807      0.59722873      0.75002239 O
# 
# What follows is the current estimated Hessian matrix constructed by the BFGS algorithm.
# This is NOT the true Hessian matrix of the system.
# If you do not want this information here, switch it off using the "hessian_to_restart_geometry" keyword.
# 
trust_radius             0.0015435619
hessian_file
