lattice_vector 26.264506 0.000000 0.000000
lattice_vector 0.000000 11.891531 0.000000
lattice_vector 0.000000 0.000000 87.542649

atom_frac 0.249998 0.000000 0.365610 O
atom_frac 0.076389 0.125000 0.380194 O
atom_frac 0.124999 0.000000 0.380195 Ti
atom_frac 0.249999 0.125000 0.380195 Ti
atom_frac 0.173610 0.125000 0.380195 O
atom_frac 0.000000 0.000000 0.394779 O
atom_frac 0.124998 0.000000 0.403114 O
atom_frac 0.201388 0.125000 0.417699 O
atom_frac 0.249999 0.000000 0.417699 Ti
atom_frac 0.124999 0.125000 0.417699 Ti
atom_frac 0.048609 0.125000 0.417699 O
atom_frac 0.125000 0.000000 0.432283 O
atom_frac 0.249997 0.000000 0.440619 O
atom_frac 0.076388 0.125000 0.455203 O
atom_frac 0.124998 0.000000 0.455203 Ti
atom_frac 0.249998 0.125000 0.455203 Ti
atom_frac 0.173608 0.125000 0.455204 O
atom_frac 0.249999 0.000000 0.469788 O
atom_frac 0.124996 0.000000 0.478123 O
atom_frac 0.201387 0.125000 0.492707 O
atom_frac 0.249997 0.000000 0.492708 Ti
atom_frac 0.124997 0.125000 0.492708 Ti
atom_frac 0.048608 0.125000 0.492708 O
atom_frac 0.124998 0.000000 0.507292 O
atom_frac 0.249996 0.000000 0.515628 O
atom_frac 0.076386 0.125000 0.530212 O
atom_frac 0.124997 0.000000 0.530212 Ti
atom_frac 0.249997 0.125000 0.530212 Ti
atom_frac 0.173607 0.125000 0.530212 O
atom_frac 0.249998 0.000000 0.544797 O
atom_frac 0.124995 0.000000 0.553132 O
atom_frac 0.201386 0.125000 0.567716 O
atom_frac 0.249996 0.000000 0.567717 Ti
atom_frac 0.124996 0.125000 0.567717 Ti
atom_frac 0.048606 0.125000 0.567717 O
atom_frac 0.124997 0.000000 0.582301 O
atom_frac 0.249994 0.000000 0.590636 O
atom_frac 0.076385 0.125000 0.605221 O
atom_frac 0.124995 0.000000 0.605221 Ti
atom_frac 0.249995 0.125000 0.605221 Ti
atom_frac 0.173606 0.125000 0.605221 O
atom_frac 0.249996 0.000000 0.619805 O
atom_frac 0.124994 0.000000 0.628141 O
atom_frac 0.201384 0.125000 0.642725 O
atom_frac 0.249995 0.000000 0.642725 Ti
atom_frac 0.124995 0.125000 0.642725 Ti
atom_frac 0.048605 0.125000 0.642726 O
atom_frac 0.124995 0.000000 0.657310 O
atom_frac 0.249998 0.250000 0.365610 O
atom_frac 0.076389 0.375000 0.380194 O
atom_frac 0.124999 0.250000 0.380195 Ti
atom_frac 0.249999 0.375000 0.380195 Ti
atom_frac 0.173610 0.375000 0.380195 O
atom_frac 0.000000 0.250000 0.394779 O
atom_frac 0.124998 0.250000 0.403114 O
atom_frac 0.201388 0.375000 0.417699 O
atom_frac 0.249999 0.250000 0.417699 Ti
atom_frac 0.124999 0.375000 0.417699 Ti
atom_frac 0.048609 0.375000 0.417699 O
atom_frac 0.125000 0.250000 0.432283 O
atom_frac 0.249997 0.250000 0.440619 O
atom_frac 0.076388 0.375000 0.455203 O
atom_frac 0.124998 0.250000 0.455203 Ti
atom_frac 0.249998 0.375000 0.455203 Ti
atom_frac 0.173608 0.375000 0.455204 O
atom_frac 0.249999 0.250000 0.469788 O
atom_frac 0.124996 0.250000 0.478123 O
atom_frac 0.201387 0.375000 0.492707 O
atom_frac 0.249997 0.250000 0.492708 Ti
atom_frac 0.124997 0.375000 0.492708 Ti
atom_frac 0.048608 0.375000 0.492708 O
atom_frac 0.124998 0.250000 0.507292 O
atom_frac 0.249996 0.250000 0.515628 O
atom_frac 0.076386 0.375000 0.530212 O
atom_frac 0.124997 0.250000 0.530212 Ti
atom_frac 0.249997 0.375000 0.530212 Ti
atom_frac 0.173607 0.375000 0.530212 O
atom_frac 0.249998 0.250000 0.544797 O
atom_frac 0.124995 0.250000 0.553132 O
atom_frac 0.201386 0.375000 0.567716 O
atom_frac 0.249996 0.250000 0.567717 Ti
atom_frac 0.124996 0.375000 0.567717 Ti
atom_frac 0.048606 0.375000 0.567717 O
atom_frac 0.124997 0.250000 0.582301 O
atom_frac 0.249994 0.250000 0.590636 O
atom_frac 0.076385 0.375000 0.605221 O
atom_frac 0.124995 0.250000 0.605221 Ti
atom_frac 0.249995 0.375000 0.605221 Ti
atom_frac 0.173606 0.375000 0.605221 O
atom_frac 0.249996 0.250000 0.619805 O
atom_frac 0.124994 0.250000 0.628141 O
atom_frac 0.201384 0.375000 0.642725 O
atom_frac 0.249995 0.250000 0.642725 Ti
atom_frac 0.124995 0.375000 0.642725 Ti
atom_frac 0.048605 0.375000 0.642726 O
atom_frac 0.124995 0.250000 0.657310 O
atom_frac 0.249998 0.500000 0.365610 O
atom_frac 0.076389 0.625000 0.380194 O
atom_frac 0.124999 0.500000 0.380195 Ti
atom_frac 0.249999 0.625000 0.380195 Ti
atom_frac 0.173610 0.625000 0.380195 O
atom_frac 0.000000 0.500000 0.394779 O
atom_frac 0.124998 0.500000 0.403114 O
atom_frac 0.201388 0.625000 0.417699 O
atom_frac 0.249999 0.500000 0.417699 Ti
atom_frac 0.124999 0.625000 0.417699 Ti
atom_frac 0.048609 0.625000 0.417699 O
atom_frac 0.125000 0.500000 0.432283 O
atom_frac 0.249997 0.500000 0.440619 O
atom_frac 0.076388 0.625000 0.455203 O
atom_frac 0.124998 0.500000 0.455203 Ti
atom_frac 0.249998 0.625000 0.455203 Ti
atom_frac 0.173608 0.625000 0.455204 O
atom_frac 0.249999 0.500000 0.469788 O
atom_frac 0.124996 0.500000 0.478123 O
atom_frac 0.201387 0.625000 0.492707 O
atom_frac 0.249997 0.500000 0.492708 Ti
atom_frac 0.124997 0.625000 0.492708 Ti
atom_frac 0.048608 0.625000 0.492708 O
atom_frac 0.124998 0.500000 0.507292 O
atom_frac 0.249996 0.500000 0.515628 O
atom_frac 0.076386 0.625000 0.530212 O
atom_frac 0.124997 0.500000 0.530212 Ti
atom_frac 0.249997 0.625000 0.530212 Ti
atom_frac 0.173607 0.625000 0.530212 O
atom_frac 0.249998 0.500000 0.544797 O
atom_frac 0.124995 0.500000 0.553132 O
atom_frac 0.201386 0.625000 0.567716 O
atom_frac 0.249996 0.500000 0.567717 Ti
atom_frac 0.124996 0.625000 0.567717 Ti
atom_frac 0.048606 0.625000 0.567717 O
atom_frac 0.124997 0.500000 0.582301 O
atom_frac 0.249994 0.500000 0.590636 O
atom_frac 0.076385 0.625000 0.605221 O
atom_frac 0.124995 0.500000 0.605221 Ti
atom_frac 0.249995 0.625000 0.605221 Ti
atom_frac 0.173606 0.625000 0.605221 O
atom_frac 0.249996 0.500000 0.619805 O
atom_frac 0.124994 0.500000 0.628141 O
atom_frac 0.201384 0.625000 0.642725 O
atom_frac 0.249995 0.500000 0.642725 Ti
atom_frac 0.124995 0.625000 0.642725 Ti
atom_frac 0.048605 0.625000 0.642726 O
atom_frac 0.124995 0.500000 0.657310 O
atom_frac 0.249998 0.750000 0.365610 O
atom_frac 0.076389 0.875000 0.380194 O
atom_frac 0.124999 0.750000 0.380195 Ti
atom_frac 0.249999 0.875000 0.380195 Ti
atom_frac 0.173610 0.875000 0.380195 O
atom_frac 0.000000 0.750000 0.394779 O
atom_frac 0.124998 0.750000 0.403114 O
atom_frac 0.201388 0.875000 0.417699 O
atom_frac 0.249999 0.750000 0.417699 Ti
atom_frac 0.124999 0.875000 0.417699 Ti
atom_frac 0.048609 0.875000 0.417699 O
atom_frac 0.125000 0.750000 0.432283 O
atom_frac 0.249997 0.750000 0.440619 O
atom_frac 0.076388 0.875000 0.455203 O
atom_frac 0.124998 0.750000 0.455203 Ti
atom_frac 0.249998 0.875000 0.455203 Ti
atom_frac 0.173608 0.875000 0.455204 O
atom_frac 0.249999 0.750000 0.469788 O
atom_frac 0.124996 0.750000 0.478123 O
atom_frac 0.201387 0.875000 0.492707 O
atom_frac 0.249997 0.750000 0.492708 Ti
atom_frac 0.124997 0.875000 0.492708 Ti
atom_frac 0.048608 0.875000 0.492708 O
atom_frac 0.124998 0.750000 0.507292 O
atom_frac 0.249996 0.750000 0.515628 O
atom_frac 0.076386 0.875000 0.530212 O
atom_frac 0.124997 0.750000 0.530212 Ti
atom_frac 0.249997 0.875000 0.530212 Ti
atom_frac 0.173607 0.875000 0.530212 O
atom_frac 0.249998 0.750000 0.544797 O
atom_frac 0.124995 0.750000 0.553132 O
atom_frac 0.201386 0.875000 0.567716 O
atom_frac 0.249996 0.750000 0.567717 Ti
atom_frac 0.124996 0.875000 0.567717 Ti
atom_frac 0.048606 0.875000 0.567717 O
atom_frac 0.124997 0.750000 0.582301 O
atom_frac 0.249994 0.750000 0.590636 O
atom_frac 0.076385 0.875000 0.605221 O
atom_frac 0.124995 0.750000 0.605221 Ti
atom_frac 0.249995 0.875000 0.605221 Ti
atom_frac 0.173606 0.875000 0.605221 O
atom_frac 0.249996 0.750000 0.619805 O
atom_frac 0.124994 0.750000 0.628141 O
atom_frac 0.201384 0.875000 0.642725 O
atom_frac 0.249995 0.750000 0.642725 Ti
atom_frac 0.124995 0.875000 0.642725 Ti
atom_frac 0.048605 0.875000 0.642726 O
atom_frac 0.124995 0.750000 0.657310 O
atom_frac 0.499998 0.000000 0.365610 O
atom_frac 0.326389 0.125000 0.380194 O
atom_frac 0.374999 0.000000 0.380195 Ti
atom_frac 0.499999 0.125000 0.380195 Ti
atom_frac 0.423610 0.125000 0.380195 O
atom_frac 0.250000 0.000000 0.394779 O
atom_frac 0.374998 0.000000 0.403114 O
atom_frac 0.451388 0.125000 0.417699 O
atom_frac 0.499999 0.000000 0.417699 Ti
atom_frac 0.374999 0.125000 0.417699 Ti
atom_frac 0.298609 0.125000 0.417699 O
atom_frac 0.375000 0.000000 0.432283 O
atom_frac 0.499997 0.000000 0.440619 O
atom_frac 0.326388 0.125000 0.455203 O
atom_frac 0.374998 0.000000 0.455203 Ti
atom_frac 0.499998 0.125000 0.455203 Ti
atom_frac 0.423608 0.125000 0.455204 O
atom_frac 0.499999 0.000000 0.469788 O
atom_frac 0.374996 0.000000 0.478123 O
atom_frac 0.451387 0.125000 0.492707 O
atom_frac 0.499997 0.000000 0.492708 Ti
atom_frac 0.374997 0.125000 0.492708 Ti
atom_frac 0.298608 0.125000 0.492708 O
atom_frac 0.374998 0.000000 0.507292 O
atom_frac 0.499996 0.000000 0.515628 O
atom_frac 0.326386 0.125000 0.530212 O
atom_frac 0.374997 0.000000 0.530212 Ti
atom_frac 0.499997 0.125000 0.530212 Ti
atom_frac 0.423607 0.125000 0.530212 O
atom_frac 0.499998 0.000000 0.544797 O
atom_frac 0.374995 0.000000 0.553132 O
atom_frac 0.451386 0.125000 0.567716 O
atom_frac 0.499996 0.000000 0.567717 Ti
atom_frac 0.374996 0.125000 0.567717 Ti
atom_frac 0.298606 0.125000 0.567717 O
atom_frac 0.374997 0.000000 0.582301 O
atom_frac 0.499994 0.000000 0.590636 O
atom_frac 0.326385 0.125000 0.605221 O
atom_frac 0.374995 0.000000 0.605221 Ti
atom_frac 0.499995 0.125000 0.605221 Ti
atom_frac 0.423606 0.125000 0.605221 O
atom_frac 0.499996 0.000000 0.619805 O
atom_frac 0.374994 0.000000 0.628141 O
atom_frac 0.451384 0.125000 0.642725 O
atom_frac 0.499995 0.000000 0.642725 Ti
atom_frac 0.374995 0.125000 0.642725 Ti
atom_frac 0.298605 0.125000 0.642726 O
atom_frac 0.374995 0.000000 0.657310 O
atom_frac 0.499998 0.250000 0.365610 O
atom_frac 0.326389 0.375000 0.380194 O
atom_frac 0.374999 0.250000 0.380195 Ti
atom_frac 0.499999 0.375000 0.380195 Ti
atom_frac 0.423610 0.375000 0.380195 O
atom_frac 0.250000 0.250000 0.394779 O
atom_frac 0.374998 0.250000 0.403114 O
atom_frac 0.451388 0.375000 0.417699 O
atom_frac 0.499999 0.250000 0.417699 Ti
atom_frac 0.374999 0.375000 0.417699 Ti
atom_frac 0.298609 0.375000 0.417699 O
atom_frac 0.375000 0.250000 0.432283 O
atom_frac 0.499997 0.250000 0.440619 O
atom_frac 0.326388 0.375000 0.455203 O
atom_frac 0.374998 0.250000 0.455203 Ti
atom_frac 0.499998 0.375000 0.455203 Ti
atom_frac 0.423608 0.375000 0.455204 O
atom_frac 0.499999 0.250000 0.469788 O
atom_frac 0.374996 0.250000 0.478123 O
atom_frac 0.451387 0.375000 0.492707 O
atom_frac 0.499997 0.250000 0.492708 Ti
atom_frac 0.374997 0.375000 0.492708 Ti
atom_frac 0.298608 0.375000 0.492708 O
atom_frac 0.374998 0.250000 0.507292 O
atom_frac 0.499996 0.250000 0.515628 O
atom_frac 0.326386 0.375000 0.530212 O
atom_frac 0.374997 0.250000 0.530212 Ti
atom_frac 0.499997 0.375000 0.530212 Ti
atom_frac 0.423607 0.375000 0.530212 O
atom_frac 0.499998 0.250000 0.544797 O
atom_frac 0.374995 0.250000 0.553132 O
atom_frac 0.451386 0.375000 0.567716 O
atom_frac 0.499996 0.250000 0.567717 Ti
atom_frac 0.374996 0.375000 0.567717 Ti
atom_frac 0.298606 0.375000 0.567717 O
atom_frac 0.374997 0.250000 0.582301 O
atom_frac 0.499994 0.250000 0.590636 O
atom_frac 0.326385 0.375000 0.605221 O
atom_frac 0.374995 0.250000 0.605221 Ti
atom_frac 0.499995 0.375000 0.605221 Ti
atom_frac 0.423606 0.375000 0.605221 O
atom_frac 0.499996 0.250000 0.619805 O
atom_frac 0.374994 0.250000 0.628141 O
atom_frac 0.451384 0.375000 0.642725 O
atom_frac 0.499995 0.250000 0.642725 Ti
atom_frac 0.374995 0.375000 0.642725 Ti
atom_frac 0.298605 0.375000 0.642726 O
atom_frac 0.374995 0.250000 0.657310 O
atom_frac 0.499998 0.500000 0.365610 O
atom_frac 0.326389 0.625000 0.380194 O
atom_frac 0.374999 0.500000 0.380195 Ti
atom_frac 0.499999 0.625000 0.380195 Ti
atom_frac 0.423610 0.625000 0.380195 O
atom_frac 0.250000 0.500000 0.394779 O
atom_frac 0.374998 0.500000 0.403114 O
atom_frac 0.451388 0.625000 0.417699 O
atom_frac 0.499999 0.500000 0.417699 Ti
atom_frac 0.374999 0.625000 0.417699 Ti
atom_frac 0.298609 0.625000 0.417699 O
atom_frac 0.375000 0.500000 0.432283 O
atom_frac 0.499997 0.500000 0.440619 O
atom_frac 0.326388 0.625000 0.455203 O
atom_frac 0.374998 0.500000 0.455203 Ti
atom_frac 0.499998 0.625000 0.455203 Ti
atom_frac 0.423608 0.625000 0.455204 O
atom_frac 0.499999 0.500000 0.469788 O
atom_frac 0.374996 0.500000 0.478123 O
atom_frac 0.451387 0.625000 0.492707 O
atom_frac 0.499997 0.500000 0.492708 Ti
atom_frac 0.374997 0.625000 0.492708 Ti
atom_frac 0.298608 0.625000 0.492708 O
atom_frac 0.374998 0.500000 0.507292 O
atom_frac 0.499996 0.500000 0.515628 O
atom_frac 0.326386 0.625000 0.530212 O
atom_frac 0.374997 0.500000 0.530212 Ti
atom_frac 0.499997 0.625000 0.530212 Ti
atom_frac 0.423607 0.625000 0.530212 O
atom_frac 0.499998 0.500000 0.544797 O
atom_frac 0.374995 0.500000 0.553132 O
atom_frac 0.451386 0.625000 0.567716 O
atom_frac 0.499996 0.500000 0.567717 Ti
atom_frac 0.374996 0.625000 0.567717 Ti
atom_frac 0.298606 0.625000 0.567717 O
atom_frac 0.374997 0.500000 0.582301 O
atom_frac 0.499994 0.500000 0.590636 O
atom_frac 0.326385 0.625000 0.605221 O
atom_frac 0.374995 0.500000 0.605221 Ti
atom_frac 0.499995 0.625000 0.605221 Ti
atom_frac 0.423606 0.625000 0.605221 O
atom_frac 0.499996 0.500000 0.619805 O
atom_frac 0.374994 0.500000 0.628141 O
atom_frac 0.451384 0.625000 0.642725 O
atom_frac 0.499995 0.500000 0.642725 Ti
atom_frac 0.374995 0.625000 0.642725 Ti
atom_frac 0.298605 0.625000 0.642726 O
atom_frac 0.374995 0.500000 0.657310 O
atom_frac 0.499998 0.750000 0.365610 O
atom_frac 0.326389 0.875000 0.380194 O
atom_frac 0.374999 0.750000 0.380195 Ti
atom_frac 0.499999 0.875000 0.380195 Ti
atom_frac 0.423610 0.875000 0.380195 O
atom_frac 0.250000 0.750000 0.394779 O
atom_frac 0.374998 0.750000 0.403114 O
atom_frac 0.451388 0.875000 0.417699 O
atom_frac 0.499999 0.750000 0.417699 Ti
atom_frac 0.374999 0.875000 0.417699 Ti
atom_frac 0.298609 0.875000 0.417699 O
atom_frac 0.375000 0.750000 0.432283 O
atom_frac 0.499997 0.750000 0.440619 O
atom_frac 0.326388 0.875000 0.455203 O
atom_frac 0.374998 0.750000 0.455203 Ti
atom_frac 0.499998 0.875000 0.455203 Ti
atom_frac 0.423608 0.875000 0.455204 O
atom_frac 0.499999 0.750000 0.469788 O
atom_frac 0.374996 0.750000 0.478123 O
atom_frac 0.451387 0.875000 0.492707 O
atom_frac 0.499997 0.750000 0.492708 Ti
atom_frac 0.374997 0.875000 0.492708 Ti
atom_frac 0.298608 0.875000 0.492708 O
atom_frac 0.374998 0.750000 0.507292 O
atom_frac 0.499996 0.750000 0.515628 F
atom_frac 0.326386 0.875000 0.530212 O
atom_frac 0.374997 0.750000 0.530212 Ti
atom_frac 0.499997 0.875000 0.530212 Ti
atom_frac 0.423607 0.875000 0.530212 O
atom_frac 0.499998 0.750000 0.544797 O
atom_frac 0.374995 0.750000 0.553132 O
atom_frac 0.451386 0.875000 0.567716 O
atom_frac 0.499996 0.750000 0.567717 Ti
atom_frac 0.374996 0.875000 0.567717 Ti
atom_frac 0.298606 0.875000 0.567717 O
atom_frac 0.374997 0.750000 0.582301 O
atom_frac 0.499994 0.750000 0.590636 O
atom_frac 0.326385 0.875000 0.605221 O
atom_frac 0.374995 0.750000 0.605221 Ti
atom_frac 0.499995 0.875000 0.605221 Ti
atom_frac 0.423606 0.875000 0.605221 O
atom_frac 0.499996 0.750000 0.619805 O
atom_frac 0.374994 0.750000 0.628141 O
atom_frac 0.451384 0.875000 0.642725 O
atom_frac 0.499995 0.750000 0.642725 Ti
atom_frac 0.374995 0.875000 0.642725 Ti
atom_frac 0.298605 0.875000 0.642726 O
atom_frac 0.374995 0.750000 0.657310 O
atom_frac 0.749998 0.000000 0.365610 O
atom_frac 0.576389 0.125000 0.380194 O
atom_frac 0.624999 0.000000 0.380195 Ti
atom_frac 0.749999 0.125000 0.380195 Ti
atom_frac 0.673610 0.125000 0.380195 O
atom_frac 0.500000 0.000000 0.394779 O
atom_frac 0.624998 0.000000 0.403114 O
atom_frac 0.701388 0.125000 0.417699 O
atom_frac 0.749999 0.000000 0.417699 Ti
atom_frac 0.624999 0.125000 0.417699 Ti
atom_frac 0.548609 0.125000 0.417699 O
atom_frac 0.625000 0.000000 0.432283 O
atom_frac 0.749997 0.000000 0.440619 O
atom_frac 0.576388 0.125000 0.455203 O
atom_frac 0.624998 0.000000 0.455203 Ti
atom_frac 0.749998 0.125000 0.455203 Ti
atom_frac 0.673608 0.125000 0.455204 O
atom_frac 0.749999 0.000000 0.469788 O
atom_frac 0.624996 0.000000 0.478123 O
atom_frac 0.701387 0.125000 0.492707 O
atom_frac 0.749997 0.000000 0.492708 Ti
atom_frac 0.624997 0.125000 0.492708 Ti
atom_frac 0.548608 0.125000 0.492708 O
atom_frac 0.624998 0.000000 0.507292 O
atom_frac 0.749996 0.000000 0.515628 O
atom_frac 0.576386 0.125000 0.530212 O
atom_frac 0.624997 0.000000 0.530212 Ti
atom_frac 0.749997 0.125000 0.530212 Ti
atom_frac 0.673607 0.125000 0.530212 O
atom_frac 0.749998 0.000000 0.544797 O
atom_frac 0.624995 0.000000 0.553132 O
atom_frac 0.701386 0.125000 0.567716 O
atom_frac 0.749996 0.000000 0.567717 Ti
atom_frac 0.624996 0.125000 0.567717 Ti
atom_frac 0.548606 0.125000 0.567717 O
atom_frac 0.624997 0.000000 0.582301 O
atom_frac 0.749994 0.000000 0.590636 O
atom_frac 0.576385 0.125000 0.605221 O
atom_frac 0.624995 0.000000 0.605221 Ti
atom_frac 0.749995 0.125000 0.605221 Ti
atom_frac 0.673606 0.125000 0.605221 O
atom_frac 0.749996 0.000000 0.619805 O
atom_frac 0.624994 0.000000 0.628141 O
atom_frac 0.701384 0.125000 0.642725 O
atom_frac 0.749995 0.000000 0.642725 Ti
atom_frac 0.624995 0.125000 0.642725 Ti
atom_frac 0.548605 0.125000 0.642726 O
atom_frac 0.624995 0.000000 0.657310 O
atom_frac 0.749998 0.250000 0.365610 O
atom_frac 0.576389 0.375000 0.380194 O
atom_frac 0.624999 0.250000 0.380195 Ti
atom_frac 0.749999 0.375000 0.380195 Ti
atom_frac 0.673610 0.375000 0.380195 O
atom_frac 0.500000 0.250000 0.394779 O
atom_frac 0.624998 0.250000 0.403114 O
atom_frac 0.701388 0.375000 0.417699 O
atom_frac 0.749999 0.250000 0.417699 Ti
atom_frac 0.624999 0.375000 0.417699 Ti
atom_frac 0.548609 0.375000 0.417699 O
atom_frac 0.625000 0.250000 0.432283 O
atom_frac 0.749997 0.250000 0.440619 O
atom_frac 0.576388 0.375000 0.455203 O
atom_frac 0.624998 0.250000 0.455203 Ti
atom_frac 0.749998 0.375000 0.455203 Ti
atom_frac 0.673608 0.375000 0.455204 O
atom_frac 0.749999 0.250000 0.469788 O
atom_frac 0.624996 0.250000 0.478123 O
atom_frac 0.701387 0.375000 0.492707 O
atom_frac 0.749997 0.250000 0.492708 Ti
atom_frac 0.624997 0.375000 0.492708 Ti
atom_frac 0.548608 0.375000 0.492708 O
atom_frac 0.624998 0.250000 0.507292 O
atom_frac 0.749996 0.250000 0.515628 O
atom_frac 0.576386 0.375000 0.530212 O
atom_frac 0.624997 0.250000 0.530212 Ti
atom_frac 0.749997 0.375000 0.530212 Ti
atom_frac 0.673607 0.375000 0.530212 O
atom_frac 0.749998 0.250000 0.544797 O
atom_frac 0.624995 0.250000 0.553132 O
atom_frac 0.701386 0.375000 0.567716 O
atom_frac 0.749996 0.250000 0.567717 Ti
atom_frac 0.624996 0.375000 0.567717 Ti
atom_frac 0.548606 0.375000 0.567717 O
atom_frac 0.624997 0.250000 0.582301 O
atom_frac 0.749994 0.250000 0.590636 O
atom_frac 0.576385 0.375000 0.605221 O
atom_frac 0.624995 0.250000 0.605221 Ti
atom_frac 0.749995 0.375000 0.605221 Ti
atom_frac 0.673606 0.375000 0.605221 O
atom_frac 0.749996 0.250000 0.619805 O
atom_frac 0.624994 0.250000 0.628141 O
atom_frac 0.701384 0.375000 0.642725 O
atom_frac 0.749995 0.250000 0.642725 Ti
atom_frac 0.624995 0.375000 0.642725 Ti
atom_frac 0.548605 0.375000 0.642726 O
atom_frac 0.624995 0.250000 0.657310 O
atom_frac 0.749998 0.500000 0.365610 O
atom_frac 0.576389 0.625000 0.380194 O
atom_frac 0.624999 0.500000 0.380195 Ti
atom_frac 0.749999 0.625000 0.380195 Ti
atom_frac 0.673610 0.625000 0.380195 O
atom_frac 0.500000 0.500000 0.394779 O
atom_frac 0.624998 0.500000 0.403114 O
atom_frac 0.701388 0.625000 0.417699 O
atom_frac 0.749999 0.500000 0.417699 Ti
atom_frac 0.624999 0.625000 0.417699 Ti
atom_frac 0.548609 0.625000 0.417699 O
atom_frac 0.625000 0.500000 0.432283 O
atom_frac 0.749997 0.500000 0.440619 O
atom_frac 0.576388 0.625000 0.455203 O
atom_frac 0.624998 0.500000 0.455203 Ti
atom_frac 0.749998 0.625000 0.455203 Ti
atom_frac 0.673608 0.625000 0.455204 O
atom_frac 0.749999 0.500000 0.469788 O
atom_frac 0.624996 0.500000 0.478123 O
atom_frac 0.701387 0.625000 0.492707 O
atom_frac 0.749997 0.500000 0.492708 Ti
atom_frac 0.624997 0.625000 0.492708 Ti
atom_frac 0.548608 0.625000 0.492708 O
atom_frac 0.624998 0.500000 0.507292 O
atom_frac 0.749996 0.500000 0.515628 O
atom_frac 0.576386 0.625000 0.530212 O
atom_frac 0.624997 0.500000 0.530212 Ti
atom_frac 0.749997 0.625000 0.530212 Ti
atom_frac 0.673607 0.625000 0.530212 O
atom_frac 0.749998 0.500000 0.544797 O
atom_frac 0.624995 0.500000 0.553132 O
atom_frac 0.701386 0.625000 0.567716 O
atom_frac 0.749996 0.500000 0.567717 Ti
atom_frac 0.624996 0.625000 0.567717 Ti
atom_frac 0.548606 0.625000 0.567717 O
atom_frac 0.624997 0.500000 0.582301 O
atom_frac 0.749994 0.500000 0.590636 O
atom_frac 0.576385 0.625000 0.605221 O
atom_frac 0.624995 0.500000 0.605221 Ti
atom_frac 0.749995 0.625000 0.605221 Ti
atom_frac 0.673606 0.625000 0.605221 O
atom_frac 0.749996 0.500000 0.619805 O
atom_frac 0.624994 0.500000 0.628141 O
atom_frac 0.701384 0.625000 0.642725 O
atom_frac 0.749995 0.500000 0.642725 Ti
atom_frac 0.624995 0.625000 0.642725 Ti
atom_frac 0.548605 0.625000 0.642726 O
atom_frac 0.624995 0.500000 0.657310 O
atom_frac 0.749998 0.750000 0.365610 O
atom_frac 0.576389 0.875000 0.380194 O
atom_frac 0.624999 0.750000 0.380195 Ti
atom_frac 0.749999 0.875000 0.380195 Ti
atom_frac 0.673610 0.875000 0.380195 O
atom_frac 0.500000 0.750000 0.394779 O
atom_frac 0.624998 0.750000 0.403114 O
atom_frac 0.701388 0.875000 0.417699 O
atom_frac 0.749999 0.750000 0.417699 Ti
atom_frac 0.624999 0.875000 0.417699 Ti
atom_frac 0.548609 0.875000 0.417699 O
atom_frac 0.625000 0.750000 0.432283 O
atom_frac 0.749997 0.750000 0.440619 O
atom_frac 0.576388 0.875000 0.455203 O
atom_frac 0.624998 0.750000 0.455203 Ti
atom_frac 0.749998 0.875000 0.455203 Ti
atom_frac 0.673608 0.875000 0.455204 O
atom_frac 0.749999 0.750000 0.469788 O
atom_frac 0.624996 0.750000 0.478123 O
atom_frac 0.701387 0.875000 0.492707 O
atom_frac 0.749997 0.750000 0.492708 Ti
atom_frac 0.624997 0.875000 0.492708 Ti
atom_frac 0.548608 0.875000 0.492708 O
atom_frac 0.624998 0.750000 0.507292 O
atom_frac 0.749996 0.750000 0.515628 O
atom_frac 0.576386 0.875000 0.530212 O
atom_frac 0.624997 0.750000 0.530212 Ti
atom_frac 0.749997 0.875000 0.530212 Ti
atom_frac 0.673607 0.875000 0.530212 O
atom_frac 0.749998 0.750000 0.544797 O
atom_frac 0.624995 0.750000 0.553132 O
atom_frac 0.701386 0.875000 0.567716 O
atom_frac 0.749996 0.750000 0.567717 Ti
atom_frac 0.624996 0.875000 0.567717 Ti
atom_frac 0.548606 0.875000 0.567717 O
atom_frac 0.624997 0.750000 0.582301 O
atom_frac 0.749994 0.750000 0.590636 O
atom_frac 0.576385 0.875000 0.605221 O
atom_frac 0.624995 0.750000 0.605221 Ti
atom_frac 0.749995 0.875000 0.605221 Ti
atom_frac 0.673606 0.875000 0.605221 O
atom_frac 0.749996 0.750000 0.619805 O
atom_frac 0.624994 0.750000 0.628141 O
atom_frac 0.701384 0.875000 0.642725 O
atom_frac 0.749995 0.750000 0.642725 Ti
atom_frac 0.624995 0.875000 0.642725 Ti
atom_frac 0.548605 0.875000 0.642726 O
atom_frac 0.624995 0.750000 0.657310 O
atom_frac 0.999998 0.000000 0.365610 O
atom_frac 0.826389 0.125000 0.380194 O
atom_frac 0.874999 0.000000 0.380195 Ti
atom_frac 0.999999 0.125000 0.380195 Ti
atom_frac 0.923610 0.125000 0.380195 O
atom_frac 0.750000 0.000000 0.394779 O
atom_frac 0.874998 0.000000 0.403114 O
atom_frac 0.951388 0.125000 0.417699 O
atom_frac 0.999999 0.000000 0.417699 Ti
atom_frac 0.874999 0.125000 0.417699 Ti
atom_frac 0.798609 0.125000 0.417699 O
atom_frac 0.875000 0.000000 0.432283 O
atom_frac 0.999997 0.000000 0.440619 O
atom_frac 0.826388 0.125000 0.455203 O
atom_frac 0.874998 0.000000 0.455203 Ti
atom_frac 0.999998 0.125000 0.455203 Ti
atom_frac 0.923608 0.125000 0.455204 O
atom_frac 0.999999 0.000000 0.469788 O
atom_frac 0.874996 0.000000 0.478123 O
atom_frac 0.951387 0.125000 0.492707 O
atom_frac 0.999997 0.000000 0.492708 Ti
atom_frac 0.874997 0.125000 0.492708 Ti
atom_frac 0.798608 0.125000 0.492708 O
atom_frac 0.874998 0.000000 0.507292 O
atom_frac 0.999996 0.000000 0.515628 O
atom_frac 0.826386 0.125000 0.530212 O
atom_frac 0.874997 0.000000 0.530212 Ti
atom_frac 0.999997 0.125000 0.530212 Ti
atom_frac 0.923607 0.125000 0.530212 O
atom_frac 0.999998 0.000000 0.544797 O
atom_frac 0.874995 0.000000 0.553132 O
atom_frac 0.951386 0.125000 0.567716 O
atom_frac 0.999996 0.000000 0.567717 Ti
atom_frac 0.874996 0.125000 0.567717 Ti
atom_frac 0.798606 0.125000 0.567717 O
atom_frac 0.874997 0.000000 0.582301 O
atom_frac 0.999994 0.000000 0.590636 O
atom_frac 0.826385 0.125000 0.605221 O
atom_frac 0.874995 0.000000 0.605221 Ti
atom_frac 0.999995 0.125000 0.605221 Ti
atom_frac 0.923606 0.125000 0.605221 O
atom_frac 0.999996 0.000000 0.619805 O
atom_frac 0.874994 0.000000 0.628141 O
atom_frac 0.951384 0.125000 0.642725 O
atom_frac 0.999995 0.000000 0.642725 Ti
atom_frac 0.874995 0.125000 0.642725 Ti
atom_frac 0.798605 0.125000 0.642726 O
atom_frac 0.874995 0.000000 0.657310 O
atom_frac 0.999998 0.250000 0.365610 O
atom_frac 0.826389 0.375000 0.380194 O
atom_frac 0.874999 0.250000 0.380195 Ti
atom_frac 0.999999 0.375000 0.380195 Ti
atom_frac 0.923610 0.375000 0.380195 O
atom_frac 0.750000 0.250000 0.394779 O
atom_frac 0.874998 0.250000 0.403114 O
atom_frac 0.951388 0.375000 0.417699 O
atom_frac 0.999999 0.250000 0.417699 Ti
atom_frac 0.874999 0.375000 0.417699 Ti
atom_frac 0.798609 0.375000 0.417699 O
atom_frac 0.875000 0.250000 0.432283 O
atom_frac 0.999997 0.250000 0.440619 O
atom_frac 0.826388 0.375000 0.455203 O
atom_frac 0.874998 0.250000 0.455203 Ti
atom_frac 0.999998 0.375000 0.455203 Ti
atom_frac 0.923608 0.375000 0.455204 O
atom_frac 0.999999 0.250000 0.469788 O
atom_frac 0.874996 0.250000 0.478123 O
atom_frac 0.951387 0.375000 0.492707 O
atom_frac 0.999997 0.250000 0.492708 Ti
atom_frac 0.874997 0.375000 0.492708 Ti
atom_frac 0.798608 0.375000 0.492708 O
atom_frac 0.874998 0.250000 0.507292 O
atom_frac 0.999996 0.250000 0.515628 O
atom_frac 0.826386 0.375000 0.530212 O
atom_frac 0.874997 0.250000 0.530212 Ti
atom_frac 0.999997 0.375000 0.530212 Ti
atom_frac 0.923607 0.375000 0.530212 O
atom_frac 0.999998 0.250000 0.544797 O
atom_frac 0.874995 0.250000 0.553132 O
atom_frac 0.951386 0.375000 0.567716 O
atom_frac 0.999996 0.250000 0.567717 Ti
atom_frac 0.874996 0.375000 0.567717 Ti
atom_frac 0.798606 0.375000 0.567717 O
atom_frac 0.874997 0.250000 0.582301 O
atom_frac 0.999994 0.250000 0.590636 O
atom_frac 0.826385 0.375000 0.605221 O
atom_frac 0.874995 0.250000 0.605221 Ti
atom_frac 0.999995 0.375000 0.605221 Ti
atom_frac 0.923606 0.375000 0.605221 O
atom_frac 0.999996 0.250000 0.619805 O
atom_frac 0.874994 0.250000 0.628141 O
atom_frac 0.951384 0.375000 0.642725 O
atom_frac 0.999995 0.250000 0.642725 Ti
atom_frac 0.874995 0.375000 0.642725 Ti
atom_frac 0.798605 0.375000 0.642726 O
atom_frac 0.874995 0.250000 0.657310 O
atom_frac 0.999998 0.500000 0.365610 O
atom_frac 0.826389 0.625000 0.380194 O
atom_frac 0.874999 0.500000 0.380195 Ti
atom_frac 0.999999 0.625000 0.380195 Ti
atom_frac 0.923610 0.625000 0.380195 O
atom_frac 0.750000 0.500000 0.394779 O
atom_frac 0.874998 0.500000 0.403114 O
atom_frac 0.951388 0.625000 0.417699 O
atom_frac 0.999999 0.500000 0.417699 Ti
atom_frac 0.874999 0.625000 0.417699 Ti
atom_frac 0.798609 0.625000 0.417699 O
atom_frac 0.875000 0.500000 0.432283 O
atom_frac 0.999997 0.500000 0.440619 O
atom_frac 0.826388 0.625000 0.455203 O
atom_frac 0.874998 0.500000 0.455203 Ti
atom_frac 0.999998 0.625000 0.455203 Ti
atom_frac 0.923608 0.625000 0.455204 O
atom_frac 0.999999 0.500000 0.469788 O
atom_frac 0.874996 0.500000 0.478123 O
atom_frac 0.951387 0.625000 0.492707 O
atom_frac 0.999997 0.500000 0.492708 Ti
atom_frac 0.874997 0.625000 0.492708 Ti
atom_frac 0.798608 0.625000 0.492708 O
atom_frac 0.874998 0.500000 0.507292 O
atom_frac 0.999996 0.500000 0.515628 O
atom_frac 0.826386 0.625000 0.530212 O
atom_frac 0.874997 0.500000 0.530212 Ti
atom_frac 0.999997 0.625000 0.530212 Ti
atom_frac 0.923607 0.625000 0.530212 O
atom_frac 0.999998 0.500000 0.544797 O
atom_frac 0.874995 0.500000 0.553132 O
atom_frac 0.951386 0.625000 0.567716 O
atom_frac 0.999996 0.500000 0.567717 Ti
atom_frac 0.874996 0.625000 0.567717 Ti
atom_frac 0.798606 0.625000 0.567717 O
atom_frac 0.874997 0.500000 0.582301 O
atom_frac 0.999994 0.500000 0.590636 O
atom_frac 0.826385 0.625000 0.605221 O
atom_frac 0.874995 0.500000 0.605221 Ti
atom_frac 0.999995 0.625000 0.605221 Ti
atom_frac 0.923606 0.625000 0.605221 O
atom_frac 0.999996 0.500000 0.619805 O
atom_frac 0.874994 0.500000 0.628141 O
atom_frac 0.951384 0.625000 0.642725 O
atom_frac 0.999995 0.500000 0.642725 Ti
atom_frac 0.874995 0.625000 0.642725 Ti
atom_frac 0.798605 0.625000 0.642726 O
atom_frac 0.874995 0.500000 0.657310 O
atom_frac 0.999998 0.750000 0.365610 O
atom_frac 0.826389 0.875000 0.380194 O
atom_frac 0.874999 0.750000 0.380195 Ti
atom_frac 0.999999 0.875000 0.380195 Ti
atom_frac 0.923610 0.875000 0.380195 O
atom_frac 0.750000 0.750000 0.394779 O
atom_frac 0.874998 0.750000 0.403114 O
atom_frac 0.951388 0.875000 0.417699 O
atom_frac 0.999999 0.750000 0.417699 Ti
atom_frac 0.874999 0.875000 0.417699 Ti
atom_frac 0.798609 0.875000 0.417699 O
atom_frac 0.875000 0.750000 0.432283 O
atom_frac 0.999997 0.750000 0.440619 O
atom_frac 0.826388 0.875000 0.455203 O
atom_frac 0.874998 0.750000 0.455203 Ti
atom_frac 0.999998 0.875000 0.455203 Ti
atom_frac 0.923608 0.875000 0.455204 O
atom_frac 0.999999 0.750000 0.469788 O
atom_frac 0.874996 0.750000 0.478123 O
atom_frac 0.951387 0.875000 0.492707 O
atom_frac 0.999997 0.750000 0.492708 Ti
atom_frac 0.874997 0.875000 0.492708 Ti
atom_frac 0.798608 0.875000 0.492708 O
atom_frac 0.874998 0.750000 0.507292 O
atom_frac 0.999996 0.750000 0.515628 O
atom_frac 0.826386 0.875000 0.530212 O
atom_frac 0.874997 0.750000 0.530212 Ti
atom_frac 0.999997 0.875000 0.530212 Ti
atom_frac 0.923607 0.875000 0.530212 O
atom_frac 0.999998 0.750000 0.544797 O
atom_frac 0.874995 0.750000 0.553132 O
atom_frac 0.951386 0.875000 0.567716 O
atom_frac 0.999996 0.750000 0.567717 Ti
atom_frac 0.874996 0.875000 0.567717 Ti
atom_frac 0.798606 0.875000 0.567717 O
atom_frac 0.874997 0.750000 0.582301 O
atom_frac 0.999994 0.750000 0.590636 O
atom_frac 0.826385 0.875000 0.605221 O
atom_frac 0.874995 0.750000 0.605221 Ti