# 
# This is the geometry file that corresponds to the current relaxation step.
# If you do not want this file to be written, set the "write_restart_geometry" flag to .false.
#  aims_uuid : 85129C0A-B5D9-46E0-AED5-36D9821443FD                                
# 
lattice_vector      4.64332494      0.00011435     -0.00000000
lattice_vector      0.00011456      4.64335009     -0.00000000
lattice_vector     -0.00000000     -0.00000000      2.97259829
atom_frac       0.00000001     -0.00000001     -0.00000000 Ti
atom_frac       0.50000000      0.50000000      0.50000000 Ti
atom_frac       0.30556146      0.30557042      0.00000000 O
atom_frac       0.69443854      0.69442958      0.00000000 O
atom_frac       0.19444742      0.80556156      0.50000000 O
atom_frac       0.80555258      0.19443844      0.50000000 O
# 
# What follows is the current estimated Hessian matrix constructed by the BFGS algorithm.
# This is NOT the true Hessian matrix of the system.
# If you do not want this information here, switch it off using the "hessian_to_restart_geometry" keyword.
# 
trust_radius             0.8000000119
hessian_file
