# 
# This is the geometry file that corresponds to the current relaxation step.
# If you do not want this file to be written, set the "write_restart_geometry" flag to .false.
#  aims_uuid : 37A37C56-BF2B-4016-A20D-5F693C01F59F                                
# 
lattice_vector      4.58727264     -0.00004805      0.00000000
lattice_vector     -0.00004803      4.58727436     -0.00000000
lattice_vector      0.00000000      0.00000000      2.95033398
atom_frac       0.00000000     -0.00000000      0.00000003 Ti
atom_frac       0.50000000      0.50000000      0.49999999 Ti
atom_frac       0.30458809      0.30458840     -0.00000001 O
atom_frac       0.69541191      0.69541160     -0.00000001 O
atom_frac       0.19540842      0.80459189      0.49999999 O
atom_frac       0.80459158      0.19540811      0.49999999 O
# 
# What follows is the current estimated Hessian matrix constructed by the BFGS algorithm.
# This is NOT the true Hessian matrix of the system.
# If you do not want this information here, switch it off using the "hessian_to_restart_geometry" keyword.
# 
trust_radius             0.8000000119
hessian_file
