lattice_vector 19.698381 0.000000 0.000000
lattice_vector 0.000000 17.837295 0.000000
lattice_vector 0.000000 0.000000 66.705880

atom 6.566086 0.000000 24.506468 O
atom 2.006317 1.486441 25.783206 O
atom 3.283046 0.000000 25.783235 Ti
atom 6.566109 1.486441 25.783235 Ti
atom 4.559775 1.486441 25.783265 O
atom 0.000005 0.000000 27.060002 O
atom 3.283006 0.000000 27.789704 O
atom 5.289362 1.486441 29.066441 O
atom 6.566091 0.000000 29.066471 Ti
atom 3.283028 1.486441 29.066471 Ti
atom 1.276694 1.486441 29.066500 O
atom 3.283051 0.000000 30.343237 O
atom 6.566051 0.000000 31.072939 O
atom 2.006281 1.486441 32.349676 O
atom 3.283010 0.000000 32.349706 Ti
atom 6.566074 1.486441 32.349706 Ti
atom 4.559740 1.486441 32.349735 O
atom 6.566096 0.000000 33.626473 O
atom 3.282970 0.000000 34.356174 O
atom 5.289327 1.486441 35.632912 O
atom 6.566056 0.000000 35.632941 Ti
atom 3.282993 1.486441 35.632941 Ti
atom 1.276659 1.486441 35.632970 O
atom 3.283015 0.000000 36.909708 O
atom 6.566016 0.000000 37.639409 O
atom 2.006246 1.486441 38.916147 O
atom 3.282975 0.000000 38.916176 Ti
atom 6.566039 1.486441 38.916176 Ti
atom 4.559704 1.486441 38.916206 O
atom 6.566061 0.000000 40.192943 O
atom 3.282935 0.000000 40.922645 O
atom 5.289292 1.486441 42.199382 O
atom 6.566021 0.000000 42.199412 Ti
atom 3.282958 1.486441 42.199412 Ti
atom 1.276623 1.486441 42.199441 O
atom 3.282980 0.000000 43.476178 O
atom 6.566086 2.972883 24.506468 O
atom 2.006317 4.459324 25.783206 O
atom 3.283046 2.972883 25.783235 Ti
atom 6.566109 4.459324 25.783235 Ti
atom 4.559775 4.459324 25.783265 O
atom 0.000005 2.972883 27.060002 O
atom 3.283006 2.972883 27.789704 O
atom 5.289362 4.459324 29.066441 O
atom 6.566091 2.972883 29.066471 Ti
atom 3.283028 4.459324 29.066471 Ti
atom 1.276694 4.459324 29.066500 O
atom 3.283051 2.972883 30.343237 O
atom 6.566051 2.972883 31.072939 O
atom 2.006281 4.459324 32.349676 O
atom 3.283010 2.972883 32.349706 Ti
atom 6.566074 4.459324 32.349706 Ti
atom 4.559740 4.459324 32.349735 O
atom 6.566096 2.972883 33.626473 O
atom 3.282970 2.972883 34.356174 O
atom 5.289327 4.459324 35.632912 O
atom 6.566056 2.972883 35.632941 Ti
atom 3.282993 4.459324 35.632941 Ti
atom 1.276659 4.459324 35.632970 O
atom 3.283015 2.972883 36.909708 O
atom 6.566016 2.972883 37.639409 O
atom 2.006246 4.459324 38.916147 O
atom 3.282975 2.972883 38.916176 Ti
atom 6.566039 4.459324 38.916176 Ti
atom 4.559704 4.459324 38.916206 O
atom 6.566061 2.972883 40.192943 O
atom 3.282935 2.972883 40.922645 O
atom 5.289292 4.459324 42.199382 O
atom 6.566021 2.972883 42.199412 Ti
atom 3.282958 4.459324 42.199412 Ti
atom 1.276623 4.459324 42.199441 O
atom 3.282980 2.972883 43.476178 O
atom 3.282980 2.972883 44.476178 H
atom 3.282980 0.000000 44.476178 H
atom 6.566086 0.000000 23.506468 H
atom 6.566086 2.972883 23.506468 H
atom 6.566021 2.972883 44.199441 O
atom 6.566021 0.000000 44.199441 O
atom 6.566021 2.972883 45.199441 H
atom 6.566021 0.000000 45.199441 H
atom 3.283046 0.000000 23.783235 O
atom 3.283046 0.000000 22.783235 H
atom 3.283046 2.972883 23.783235 O
atom 3.283046 2.972883 22.783235 H
atom 6.566086 5.945765 24.506468 O
atom 2.006317 7.432206 25.783206 O
atom 3.283046 5.945765 25.783235 Ti
atom 6.566109 7.432206 25.783235 Ti
atom 4.559775 7.432206 25.783265 O
atom 0.000005 5.945765 27.060002 O
atom 3.283006 5.945765 27.789704 O
atom 5.289362 7.432206 29.066441 O
atom 6.566091 5.945765 29.066471 Ti
atom 3.283028 7.432206 29.066471 Ti
atom 1.276694 7.432206 29.066500 O
atom 3.283051 5.945765 30.343237 O
atom 6.566051 5.945765 31.072939 O
atom 2.006281 7.432206 32.349676 O
atom 3.283010 5.945765 32.349706 Ti
atom 6.566074 7.432206 32.349706 Ti
atom 4.559740 7.432206 32.349735 O
atom 6.566096 5.945765 33.626473 O
atom 3.282970 5.945765 34.356174 O
atom 5.289327 7.432206 35.632912 O
atom 6.566056 5.945765 35.632941 Ti
atom 3.282993 7.432206 35.632941 Ti
atom 1.276659 7.432206 35.632970 O
atom 3.283015 5.945765 36.909708 O
atom 6.566016 5.945765 37.639409 O
atom 2.006246 7.432206 38.916147 O
atom 3.282975 5.945765 38.916176 Ti
atom 6.566039 7.432206 38.916176 Ti
atom 4.559704 7.432206 38.916206 O
atom 6.566061 5.945765 40.192943 O
atom 3.282935 5.945765 40.922645 O
atom 5.289292 7.432206 42.199382 O
atom 6.566021 5.945765 42.199412 Ti
atom 3.282958 7.432206 42.199412 Ti
atom 1.276623 7.432206 42.199441 O
atom 3.282980 5.945765 43.476178 O
atom 6.566086 8.918648 24.506468 O
atom 2.006317 10.405089 25.783206 O
atom 3.283046 8.918648 25.783235 Ti
atom 6.566109 10.405089 25.783235 Ti
atom 4.559775 10.405089 25.783265 O
atom 0.000005 8.918648 27.060002 O
atom 3.283006 8.918648 27.789704 O
atom 5.289362 10.405089 29.066441 O
atom 6.566091 8.918648 29.066471 Ti
atom 3.283028 10.405089 29.066471 Ti
atom 1.276694 10.405089 29.066500 O
atom 3.283051 8.918648 30.343237 O
atom 6.566051 8.918648 31.072939 O
atom 2.006281 10.405089 32.349676 O
atom 3.283010 8.918648 32.349706 Ti
atom 6.566074 10.405089 32.349706 Ti
atom 4.559740 10.405089 32.349735 O
atom 6.566096 8.918648 33.626473 O
atom 3.282970 8.918648 34.356174 O
atom 5.289327 10.405089 35.632912 O
atom 6.566056 8.918648 35.632941 Ti
atom 3.282993 10.405089 35.632941 Ti
atom 1.276659 10.405089 35.632970 O
atom 3.283015 8.918648 36.909708 O
atom 6.566016 8.918648 37.639409 O
atom 2.006246 10.405089 38.916147 O
atom 3.282975 8.918648 38.916176 Ti
atom 6.566039 10.405089 38.916176 Ti
atom 4.559704 10.405089 38.916206 O
atom 6.566061 8.918648 40.192943 O
atom 3.282935 8.918648 40.922645 O
atom 5.289292 10.405089 42.199382 O
atom 6.566021 8.918648 42.199412 Ti
atom 3.282958 10.405089 42.199412 Ti
atom 1.276623 10.405089 42.199441 O
atom 3.282980 8.918648 43.476178 O
atom 3.282980 8.918648 44.476178 H
atom 3.282980 5.945765 44.476178 H
atom 6.566086 5.945765 23.506468 H
atom 6.566086 8.918648 23.506468 H
atom 6.566021 8.918648 44.199441 O
atom 6.566021 5.945765 44.199441 O
atom 6.566021 8.918648 45.199441 H
atom 6.566021 5.945765 45.199441 H
atom 3.283046 5.945765 23.783235 O
atom 3.283046 5.945765 22.783235 H
atom 3.283046 8.918648 23.783235 O
atom 3.283046 8.918648 22.783235 H
atom 6.566086 11.891530 24.506468 O
atom 2.006317 13.377971 25.783206 O
atom 3.283046 11.891530 25.783235 Ti
atom 6.566109 13.377971 25.783235 Ti
atom 4.559775 13.377971 25.783265 O
atom 0.000005 11.891530 27.060002 O
atom 3.283006 11.891530 27.789704 O
atom 5.289362 13.377971 29.066441 O
atom 6.566091 11.891530 29.066471 Ti
atom 3.283028 13.377971 29.066471 Ti
atom 1.276694 13.377971 29.066500 O
atom 3.283051 11.891530 30.343237 O
atom 6.566051 11.891530 31.072939 O
atom 2.006281 13.377971 32.349676 O
atom 3.283010 11.891530 32.349706 Ti
atom 6.566074 13.377971 32.349706 Ti
atom 4.559740 13.377971 32.349735 O
atom 6.566096 11.891530 33.626473 O
atom 3.282970 11.891530 34.356174 O
atom 5.289327 13.377971 35.632912 O
atom 6.566056 11.891530 35.632941 Ti
atom 3.282993 13.377971 35.632941 Ti
atom 1.276659 13.377971 35.632970 O
atom 3.283015 11.891530 36.909708 O
atom 6.566016 11.891530 37.639409 O
atom 2.006246 13.377971 38.916147 O
atom 3.282975 11.891530 38.916176 Ti
atom 6.566039 13.377971 38.916176 Ti
atom 4.559704 13.377971 38.916206 O
atom 6.566061 11.891530 40.192943 O
atom 3.282935 11.891530 40.922645 O
atom 5.289292 13.377971 42.199382 O
atom 6.566021 11.891530 42.199412 Ti
atom 3.282958 13.377971 42.199412 Ti
atom 1.276623 13.377971 42.199441 O
atom 3.282980 11.891530 43.476178 O
atom 6.566086 14.864413 24.506468 O
atom 2.006317 16.350854 25.783206 O
atom 3.283046 14.864413 25.783235 Ti
atom 6.566109 16.350854 25.783235 Ti
atom 4.559775 16.350854 25.783265 O
atom 0.000005 14.864413 27.060002 O
atom 3.283006 14.864413 27.789704 O
atom 5.289362 16.350854 29.066441 O
atom 6.566091 14.864413 29.066471 Ti
atom 3.283028 16.350854 29.066471 Ti
atom 1.276694 16.350854 29.066500 O
atom 3.283051 14.864413 30.343237 O
atom 6.566051 14.864413 31.072939 O
atom 2.006281 16.350854 32.349676 O
atom 3.283010 14.864413 32.349706 Ti
atom 6.566074 16.350854 32.349706 Ti
atom 4.559740 16.350854 32.349735 O
atom 6.566096 14.864413 33.626473 O
atom 3.282970 14.864413 34.356174 O
atom 5.289327 16.350854 35.632912 O
atom 6.566056 14.864413 35.632941 Ti
atom 3.282993 16.350854 35.632941 Ti
atom 1.276659 16.350854 35.632970 O
atom 3.283015 14.864413 36.909708 O
atom 6.566016 14.864413 37.639409 O
atom 2.006246 16.350854 38.916147 O
atom 3.282975 14.864413 38.916176 Ti
atom 6.566039 16.350854 38.916176 Ti
atom 4.559704 16.350854 38.916206 O
atom 6.566061 14.864413 40.192943 O
atom 3.282935 14.864413 40.922645 O
atom 5.289292 16.350854 42.199382 O
atom 6.566021 14.864413 42.199412 Ti
atom 3.282958 16.350854 42.199412 Ti
atom 1.276623 16.350854 42.199441 O
atom 3.282980 14.864413 43.476178 O
atom 3.282980 14.864413 44.476178 H
atom 3.282980 11.891530 44.476178 H
atom 6.566086 11.891530 23.506468 H
atom 6.566086 14.864413 23.506468 H
atom 6.566021 14.864413 44.199441 O
atom 6.566021 11.891530 44.199441 O
atom 6.566021 14.864413 45.199441 H
atom 6.566021 11.891530 45.199441 H
atom 3.283046 11.891530 23.783235 O
atom 3.283046 11.891530 22.783235 H
atom 3.283046 14.864413 23.783235 O
atom 3.283046 14.864413 22.783235 H
atom 13.132213 0.000000 24.506468 O
atom 8.572444 1.486441 25.783206 O
atom 9.849173 0.000000 25.783235 Ti
atom 13.132236 1.486441 25.783235 Ti
atom 11.125902 1.486441 25.783265 O
atom 6.566132 0.000000 27.060002 O
atom 9.849133 0.000000 27.789704 O
atom 11.855489 1.486441 29.066441 O
atom 13.132218 0.000000 29.066471 Ti
atom 9.849155 1.486441 29.066471 Ti
atom 7.842821 1.486441 29.066500 O
atom 9.849178 0.000000 30.343237 O
atom 13.132178 0.000000 31.072939 O
atom 8.572408 1.486441 32.349676 O
atom 9.849137 0.000000 32.349706 Ti
atom 13.132201 1.486441 32.349706 Ti
atom 11.125867 1.486441 32.349735 O
atom 13.132223 0.000000 33.626473 O
atom 9.849097 0.000000 34.356174 O
atom 11.855454 1.486441 35.632912 O
atom 13.132183 0.000000 35.632941 Ti
atom 9.849120 1.486441 35.632941 Ti
atom 7.842786 1.486441 35.632970 O
atom 9.849142 0.000000 36.909708 O
atom 13.132143 0.000000 37.639409 O
atom 8.572373 1.486441 38.916147 O
atom 9.849102 0.000000 38.916176 Ti
atom 13.132166 1.486441 38.916176 Ti
atom 11.125831 1.486441 38.916206 O
atom 13.132188 0.000000 40.192943 O
atom 9.849062 0.000000 40.922645 O
atom 11.855419 1.486441 42.199382 O
atom 13.132148 0.000000 42.199412 Ti
atom 9.849085 1.486441 42.199412 Ti
atom 7.842750 1.486441 42.199441 O
atom 9.849107 0.000000 43.476178 O
atom 13.132213 2.972883 24.506468 O
atom 8.572444 4.459324 25.783206 O
atom 9.849173 2.972883 25.783235 Ti
atom 13.132236 4.459324 25.783235 Ti
atom 11.125902 4.459324 25.783265 O
atom 6.566132 2.972883 27.060002 O
atom 9.849133 2.972883 27.789704 O
atom 11.855489 4.459324 29.066441 O
atom 13.132218 2.972883 29.066471 Ti
atom 9.849155 4.459324 29.066471 Ti
atom 7.842821 4.459324 29.066500 O
atom 9.849178 2.972883 30.343237 O
atom 13.132178 2.972883 31.072939 O
atom 8.572408 4.459324 32.349676 O
atom 9.849137 2.972883 32.349706 Ti
atom 13.132201 4.459324 32.349706 Ti
atom 11.125867 4.459324 32.349735 O
atom 13.132223 2.972883 33.626473 O
atom 9.849097 2.972883 34.356174 O
atom 11.855454 4.459324 35.632912 O
atom 13.132183 2.972883 35.632941 Ti
atom 9.849120 4.459324 35.632941 Ti
atom 7.842786 4.459324 35.632970 O
atom 9.849142 2.972883 36.909708 O
atom 13.132143 2.972883 37.639409 O
atom 8.572373 4.459324 38.916147 O
atom 9.849102 2.972883 38.916176 Ti
atom 13.132166 4.459324 38.916176 Ti
atom 11.125831 4.459324 38.916206 O
atom 13.132188 2.972883 40.192943 O
atom 9.849062 2.972883 40.922645 O
atom 11.855419 4.459324 42.199382 O
atom 13.132148 2.972883 42.199412 Ti
atom 9.849085 4.459324 42.199412 Ti
atom 7.842750 4.459324 42.199441 O
atom 9.849107 2.972883 43.476178 O
atom 9.849107 2.972883 44.476178 H
atom 9.849107 0.000000 44.476178 H
atom 13.132213 0.000000 23.506468 H
atom 13.132213 2.972883 23.506468 H
atom 13.132148 2.972883 44.199441 O
atom 13.132148 0.000000 44.199441 O
atom 13.132148 2.972883 45.199441 H
atom 13.132148 0.000000 45.199441 H
atom 9.849173 0.000000 23.783235 O
atom 9.849173 0.000000 22.783235 H
atom 9.849173 2.972883 23.783235 O
atom 9.849173 2.972883 22.783235 H
atom 13.132213 5.945765 24.506468 O
atom 8.572444 7.432206 25.783206 O
atom 9.849173 5.945765 25.783235 Ti
atom 13.132236 7.432206 25.783235 Ti
atom 11.125902 7.432206 25.783265 O
atom 6.566132 5.945765 27.060002 O
atom 9.849133 5.945765 27.789704 O
atom 11.855489 7.432206 29.066441 O
atom 13.132218 5.945765 29.066471 Ti
atom 9.849155 7.432206 29.066471 Ti
atom 7.842821 7.432206 29.066500 O
atom 9.849178 5.945765 30.343237 O
atom 13.132178 5.945765 31.072939 O
atom 8.572408 7.432206 32.349676 O
atom 9.849137 5.945765 32.349706 Ti
atom 13.132201 7.432206 32.349706 Ti
atom 11.125867 7.432206 32.349735 O
atom 13.132223 5.945765 33.626473 O
atom 9.849097 5.945765 34.356174 O
atom 11.855454 7.432206 35.632912 O
atom 13.132183 5.945765 35.632941 Ti
atom 9.849120 7.432206 35.632941 Ti
atom 7.842786 7.432206 35.632970 O
atom 9.849142 5.945765 36.909708 O
atom 13.132143 5.945765 37.639409 O
atom 8.572373 7.432206 38.916147 O
atom 9.849102 5.945765 38.916176 Ti
atom 13.132166 7.432206 38.916176 Ti
atom 11.125831 7.432206 38.916206 O
atom 13.132188 5.945765 40.192943 O
atom 9.849062 5.945765 40.922645 O
atom 11.855419 7.432206 42.199382 O
atom 13.132148 5.945765 42.199412 Ti
atom 9.849085 7.432206 42.199412 Ti
atom 7.842750 7.432206 42.199441 O
atom 9.849107 5.945765 43.476178 F
atom 13.132213 8.918648 24.506468 O
atom 8.572444 10.405089 25.783206 O
atom 9.849173 8.918648 25.783235 Ti
atom 13.132236 10.405089 25.783235 Ti
atom 11.125902 10.405089 25.783265 O
atom 6.566132 8.918648 27.060002 O
atom 9.849133 8.918648 27.789704 O
atom 11.855489 10.405089 29.066441 O
atom 13.132218 8.918648 29.066471 Ti
atom 9.849155 10.405089 29.066471 Ti
atom 7.842821 10.405089 29.066500 O
atom 9.849178 8.918648 30.343237 O
atom 13.132178 8.918648 31.072939 O
atom 8.572408 10.405089 32.349676 O
atom 9.849137 8.918648 32.349706 Ti
atom 13.132201 10.405089 32.349706 Ti
atom 11.125867 10.405089 32.349735 O
atom 13.132223 8.918648 33.626473 O
atom 9.849097 8.918648 34.356174 O
atom 11.855454 10.405089 35.632912 O
atom 13.132183 8.918648 35.632941 Ti
atom 9.849120 10.405089 35.632941 Ti
atom 7.842786 10.405089 35.632970 O
atom 9.849142 8.918648 36.909708 O
atom 13.132143 8.918648 37.639409 O
atom 8.572373 10.405089 38.916147 O
atom 9.849102 8.918648 38.916176 Ti
atom 13.132166 10.405089 38.916176 Ti
atom 11.125831 10.405089 38.916206 O
atom 13.132188 8.918648 40.192943 O
atom 9.849062 8.918648 40.922645 O
atom 11.855419 10.405089 42.199382 O
atom 13.132148 8.918648 42.199412 Ti
atom 9.849085 10.405089 42.199412 Ti
atom 7.842750 10.405089 42.199441 O
atom 9.849107 8.918648 43.476178 O
atom 9.849107 8.918648 44.476178 H
atom 9.849107 5.945765 44.476178 H
atom 13.132213 5.945765 23.506468 H
atom 13.132213 8.918648 23.506468 H
atom 13.132148 8.918648 44.199441 O
atom 13.132148 5.945765 44.199441 O
atom 13.132148 8.918648 45.199441 H
atom 13.132148 5.945765 45.199441 H
atom 9.849173 5.945765 23.783235 O
atom 9.849173 5.945765 22.783235 H
atom 9.849173 8.918648 23.783235 O
atom 9.849173 8.918648 22.783235 H
atom 13.132213 11.891530 24.506468 O
atom 8.572444 13.377971 25.783206 O
atom 9.849173 11.891530 25.783235 Ti
atom 13.132236 13.377971 25.783235 Ti
atom 11.125902 13.377971 25.783265 O
atom 6.566132 11.891530 27.060002 O
atom 9.849133 11.891530 27.789704 O
atom 11.855489 13.377971 29.066441 O
atom 13.132218 11.891530 29.066471 Ti
atom 9.849155 13.377971 29.066471 Ti
atom 7.842821 13.377971 29.066500 O
atom 9.849178 11.891530 30.343237 O
atom 13.132178 11.891530 31.072939 O
atom 8.572408 13.377971 32.349676 O
atom 9.849137 11.891530 32.349706 Ti
atom 13.132201 13.377971 32.349706 Ti
atom 11.125867 13.377971 32.349735 O
atom 13.132223 11.891530 33.626473 O
atom 9.849097 11.891530 34.356174 O
atom 11.855454 13.377971 35.632912 O
atom 13.132183 11.891530 35.632941 Ti
atom 9.849120 13.377971 35.632941 Ti
atom 7.842786 13.377971 35.632970 O
atom 9.849142 11.891530 36.909708 O
atom 13.132143 11.891530 37.639409 O
atom 8.572373 13.377971 38.916147 O
atom 9.849102 11.891530 38.916176 Ti
atom 13.132166 13.377971 38.916176 Ti
atom 11.125831 13.377971 38.916206 O
atom 13.132188 11.891530 40.192943 O
atom 9.849062 11.891530 40.922645 O
atom 11.855419 13.377971 42.199382 O
atom 13.132148 11.891530 42.199412 Ti
atom 9.849085 13.377971 42.199412 Ti
atom 7.842750 13.377971 42.199441 O
atom 9.849107 11.891530 43.476178 O
atom 13.132213 14.864413 24.506468 O
atom 8.572444 16.350854 25.783206 O
atom 9.849173 14.864413 25.783235 Ti
atom 13.132236 16.350854 25.783235 Ti
atom 11.125902 16.350854 25.783265 O
atom 6.566132 14.864413 27.060002 O
atom 9.849133 14.864413 27.789704 O
atom 11.855489 16.350854 29.066441 O
atom 13.132218 14.864413 29.066471 Ti
atom 9.849155 16.350854 29.066471 Ti
atom 7.842821 16.350854 29.066500 O
atom 9.849178 14.864413 30.343237 O
atom 13.132178 14.864413 31.072939 O
atom 8.572408 16.350854 32.349676 O
atom 9.849137 14.864413 32.349706 Ti
atom 13.132201 16.350854 32.349706 Ti
atom 11.125867 16.350854 32.349735 O
atom 13.132223 14.864413 33.626473 O
atom 9.849097 14.864413 34.356174 O
atom 11.855454 16.350854 35.632912 O
atom 13.132183 14.864413 35.632941 Ti
atom 9.849120 16.350854 35.632941 Ti
atom 7.842786 16.350854 35.632970 O
atom 9.849142 14.864413 36.909708 O
atom 13.132143 14.864413 37.639409 O
atom 8.572373 16.350854 38.916147 O
atom 9.849102 14.864413 38.916176 Ti
atom 13.132166 16.350854 38.916176 Ti
atom 11.125831 16.350854 38.916206 O
atom 13.132188 14.864413 40.192943 O
atom 9.849062 14.864413 40.922645 O
atom 11.855419 16.350854 42.199382 O
atom 13.132148 14.864413 42.199412 Ti
atom 9.849085 16.350854 42.199412 Ti
atom 7.842750 16.350854 42.199441 O
atom 9.849107 14.864413 43.476178 O
atom 9.849107 14.864413 44.476178 H
atom 9.849107 11.891530 44.476178 H
atom 13.132213 11.891530 23.506468 H
atom 13.132213 14.864413 23.506468 H
atom 13.132148 14.864413 44.199441 O
atom 13.132148 11.891530 44.199441 O
atom 13.132148 14.864413 45.199441 H
atom 13.132148 11.891530 45.199441 H
atom 9.849173 11.891530 23.783235 O
atom 9.849173 11.891530 22.783235 H
atom 9.849173 14.864413 23.783235 O
atom 9.849173 14.864413 22.783235 H
atom 19.698340 0.000000 24.506468 O
atom 15.138571 1.486441 25.783206 O
atom 16.415300 0.000000 25.783235 Ti
atom 19.698363 1.486441 25.783235 Ti
atom 17.692029 1.486441 25.783265 O
atom 13.132259 0.000000 27.060002 O
atom 16.415260 0.000000 27.789704 O
atom 18.421616 1.486441 29.066441 O
atom 19.698345 0.000000 29.066471 Ti
atom 16.415282 1.486441 29.066471 Ti
atom 14.408948 1.486441 29.066500 O
atom 16.415305 0.000000 30.343237 O
atom 19.698305 0.000000 31.072939 O
atom 15.138535 1.486441 32.349676 O
atom 16.415264 0.000000 32.349706 Ti
atom 19.698328 1.486441 32.349706 Ti
atom 17.691994 1.486441 32.349735 O
atom 19.698350 0.000000 33.626473 O
atom 16.415224 0.000000 34.356174 O
atom 18.421581 1.486441 35.632912 O
atom 19.698310 0.000000 35.632941 Ti
atom 16.415247 1.486441 35.632941 Ti
atom 14.408913 1.486441 35.632970 O
atom 16.415269 0.000000 36.909708 O
atom 19.698270 0.000000 37.639409 O
atom 15.138500 1.486441 38.916147 O
atom 16.415229 0.000000 38.916176 Ti
atom 19.698293 1.486441 38.916176 Ti
atom 17.691958 1.486441 38.916206 O
atom 19.698315 0.000000 40.192943 O
atom 16.415189 0.000000 40.922645 O
atom 18.421546 1.486441 42.199382 O
atom 19.698275 0.000000 42.199412 Ti
atom 16.415212 1.486441 42.199412 Ti
atom 14.408877 1.486441 42.199441 O
atom 16.415234 0.000000 43.476178 O
atom 19.698340 2.972883 24.506468 O
atom 15.138571 4.459324 25.783206 O
atom 16.415300 2.972883 25.783235 Ti
atom 19.698363 4.459324 25.783235 Ti
atom 17.692029 4.459324 25.783265 O
atom 13.132259 2.972883 27.060002 O
atom 16.415260 2.972883 27.789704 O
atom 18.421616 4.459324 29.066441 O
atom 19.698345 2.972883 29.066471 Ti
atom 16.415282 4.459324 29.066471 Ti
atom 14.408948 4.459324 29.066500 O
atom 16.415305 2.972883 30.343237 O
atom 19.698305 2.972883 31.072939 O
atom 15.138535 4.459324 32.349676 O
atom 16.415264 2.972883 32.349706 Ti
atom 19.698328 4.459324 32.349706 Ti
atom 17.691994 4.459324 32.349735 O
atom 19.698350 2.972883 33.626473 O
atom 16.415224 2.972883 34.356174 O
atom 18.421581 4.459324 35.632912 O
atom 19.698310 2.972883 35.632941 Ti
atom 16.415247 4.459324 35.632941 Ti
atom 14.408913 4.459324 35.632970 O
atom 16.415269 2.972883 36.909708 O
atom 19.698270 2.972883 37.639409 O
atom 15.138500 4.459324 38.916147 O
atom 16.415229 2.972883 38.916176 Ti
atom 19.698293 4.459324 38.916176 Ti
atom 17.691958 4.459324 38.916206 O
atom 19.698315 2.972883 40.192943 O
atom 16.415189 2.972883 40.922645 O
atom 18.421546 4.459324 42.199382 O
atom 19.698275 2.972883 42.199412 Ti
atom 16.415212 4.459324 42.199412 Ti
atom 14.408877 4.459324 42.199441 O
atom 16.415234 2.972883 43.476178 O
atom 16.415234 2.972883 44.476178 H
atom 16.415234 0.000000 44.476178 H
atom 19.698340 0.000000 23.506468 H
atom 19.698340 2.972883 23.506468 H
atom 19.698275 2.972883 44.199441 O
atom 19.698275 0.000000 44.199441 O
atom 19.698275 2.972883 45.199441 H
atom 19.698275 0.000000 45.199441 H
atom 16.415300 0.000000 23.783235 O
atom 16.415300 0.000000 22.783235 H
atom 16.415300 2.972883 23.783235 O
atom 16.415300 2.972883 22.783235 H
atom 19.698340 5.945765 24.506468 O
atom 15.138571 7.432206 25.783206 O
atom 16.415300 5.945765 25.783235 Ti
atom 19.698363 7.432206 25.783235 Ti
atom 17.692029 7.432206 25.783265 O
atom 13.132259 5.945765 27.060002 O
atom 16.415260 5.945765 27.789704 O
atom 18.421616 7.432206 29.066441 O
atom 19.698345 5.945765 29.066471 Ti
atom 16.415282 7.432206 29.066471 Ti
atom 14.408948 7.432206 29.066500 O
atom 16.415305 5.945765 30.343237 O
atom 19.698305 5.945765 31.072939 O
atom 15.138535 7.432206 32.349676 O
atom 16.415264 5.945765 32.349706 Ti
atom 19.698328 7.432206 32.349706 Ti
atom 17.691994 7.432206 32.349735 O
atom 19.698350 5.945765 33.626473 O
atom 16.415224 5.945765 34.356174 O
atom 18.421581 7.432206 35.632912 O
atom 19.698310 5.945765 35.632941 Ti
atom 16.415247 7.432206 35.632941 Ti
atom 14.408913 7.432206 35.632970 O
atom 16.415269 5.945765 36.909708 O
atom 19.698270 5.945765 37.639409 O
atom 15.138500 7.432206 38.916147 O
atom 16.415229 5.945765 38.916176 Ti
atom 19.698293 7.432206 38.916176 Ti
atom 17.691958 7.432206 38.916206 O
atom 19.698315 5.945765 40.192943 O
atom 16.415189 5.945765 40.922645 O
atom 18.421546 7.432206 42.199382 O
atom 19.698275 5.945765 42.199412 Ti
atom 16.415212 7.432206 42.199412 Ti
atom 14.408877 7.432206 42.199441 O
atom 16.415234 5.945765 43.476178 O
atom 19.698340 8.918648 24.506468 O
atom 15.138571 10.405089 25.783206 O
atom 16.415300 8.918648 25.783235 Ti
atom 19.698363 10.405089 25.783235 Ti
atom 17.692029 10.405089 25.783265 O
atom 13.132259 8.918648 27.060002 O
atom 16.415260 8.918648 27.789704 O
atom 18.421616 10.405089 29.066441 O
atom 19.698345 8.918648 29.066471 Ti
atom 16.415282 10.405089 29.066471 Ti
atom 14.408948 10.405089 29.066500 O
atom 16.415305 8.918648 30.343237 O
atom 19.698305 8.918648 31.072939 O
atom 15.138535 10.405089 32.349676 O
atom 16.415264 8.918648 32.349706 Ti
atom 19.698328 10.405089 32.349706 Ti
atom 17.691994 10.405089 32.349735 O
atom 19.698350 8.918648 33.626473 O
atom 16.415224 8.918648 34.356174 O
atom 18.421581 10.405089 35.632912 O
atom 19.698310 8.918648 35.632941 Ti
atom 16.415247 10.405089 35.632941 Ti
atom 14.408913 10.405089 35.632970 O
atom 16.415269 8.918648 36.909708 O
atom 19.698270 8.918648 37.639409 O
atom 15.138500 10.405089 38.916147 O
atom 16.415229 8.918648 38.916176 Ti
atom 19.698293 10.405089 38.916176 Ti
atom 17.691958 10.405089 38.916206 O
atom 19.698315 8.918648 40.192943 O
atom 16.415189 8.918648 40.922645 O
atom 18.421546 10.405089 42.199382 O
atom 19.698275 8.918648 42.199412 Ti
atom 16.415212 10.405089 42.199412 Ti
atom 14.408877 10.405089 42.199441 O
atom 16.415234 8.918648 43.476178 O
atom 16.415234 8.918648 44.476178 H
atom 16.415234 5.945765 44.476178 H
atom 19.698340 5.945765 23.506468 H
atom 19.698340 8.918648 23.506468 H
atom 19.698275 8.918648 44.199441 O
atom 19.698275 5.945765 44.199441 O
atom 19.698275 8.918648 45.199441 H
atom 19.698275 5.945765 45.199441 H
atom 16.415300 5.945765 23.783235 O
atom 16.415300 5.945765 22.783235 H
atom 16.415300 8.918648 23.783235 O
atom 16.415300 8.918648 22.783235 H
atom 19.698340 11.891530 24.506468 O
atom 15.138571 13.377971 25.783206 O
atom 16.415300 11.891530 25.783235 Ti
atom 19.698363 13.377971 25.783235 Ti
atom 17.692029 13.377971 25.783265 O
atom 13.132259 11.891530 27.060002 O
atom 16.415260 11.891530 27.789704 O
atom 18.421616 13.377971 29.066441 O
atom 19.698345 11.891530 29.066471 Ti
atom 16.415282 13.377971 29.066471 Ti
atom 14.408948 13.377971 29.066500 O
atom 16.415305 11.891530 30.343237 O
atom 19.698305 11.891530 31.072939 O
atom 15.138535 13.377971 32.349676 O
atom 16.415264 11.891530 32.349706 Ti
atom 19.698328 13.377971 32.349706 Ti
atom 17.691994 13.377971 32.349735 O
atom 19.698350 11.891530 33.626473 O
atom 16.415224 11.891530 34.356174 O
atom 18.421581 13.377971 35.632912 O
atom 19.698310 11.891530 35.632941 Ti
atom 16.415247 13.377971 35.632941 Ti
atom 14.408913 13.377971 35.632970 O
atom 16.415269 11.891530 36.909708 O
atom 19.698270 11.891530 37.639409 O
atom 15.138500 13.377971 38.916147 O
atom 16.415229 11.891530 38.916176 Ti
atom 19.698293 13.377971 38.916176 Ti
atom 17.691958 13.377971 38.916206 O
atom 19.698315 11.891530 40.192943 O
atom 16.415189 11.891530 40.922645 O
atom 18.421546 13.377971 42.199382 O
atom 19.698275 11.891530 42.199412 Ti
atom 16.415212 13.377971 42.199412 Ti
atom 14.408877 13.377971 42.199441 O
atom 16.415234 11.891530 43.476178 O
atom 19.698340 14.864413 24.506468 O
atom 15.138571 16.350854 25.783206 O
atom 16.415300 14.864413 25.783235 Ti
atom 19.698363 16.350854 25.783235 Ti
atom 17.692029 16.350854 25.783265 O
atom 13.132259 14.864413 27.060002 O
atom 16.415260 14.864413 27.789704 O
atom 18.421616 16.350854 29.066441 O
atom 19.698345 14.864413 29.066471 Ti
atom 16.415282 16.350854 29.066471 Ti
atom 14.408948 16.350854 29.066500 O
atom 16.415305 14.864413 30.343237 O
atom 19.698305 14.864413 31.072939 O
atom 15.138535 16.350854 32.349676 O
atom 16.415264 14.864413 32.349706 Ti
atom 19.698328 16.350854 32.349706 Ti
atom 17.691994 16.350854 32.349735 O
atom 19.698350 14.864413 33.626473 O
atom 16.415224 14.864413 34.356174 O
atom 18.421581 16.350854 35.632912 O
atom 19.698310 14.864413 35.632941 Ti
atom 16.415247 16.350854 35.632941 Ti
atom 14.408913 16.350854 35.632970 O
atom 16.415269 14.864413 36.909708 O
atom 19.698270 14.864413 37.639409 O
atom 15.138500 16.350854 38.916147 O
atom 16.415229 14.864413 38.916176 Ti
atom 19.698293 16.350854 38.916176 Ti
atom 17.691958 16.350854 38.916206 O
atom 19.698315 14.864413 40.192943 O
atom 16.415189 14.864413 40.922645 O
atom 18.421546 16.350854 42.199382 O
atom 19.698275 14.864413 42.199412 Ti
atom 16.415212 16.350854 42.199412 Ti
atom 14.408877 16.350854 42.199441 O
atom 16.415234 14.864413 43.476178 O
atom 16.415234 14.864413 44.476178 H
atom 16.415234 11.891530 44.476178 H
atom 19.698340 11.891530 23.506468 H
atom 19.698340 14.864413 23.506468 H
atom 19.698275 14.864413 44.199441 O
atom 19.698275 11.891530 44.199441 O
atom 19.698275 14.864413 45.199441 H
atom 19.698275 11.891530 45.199441 H
atom 16.415300 11.891530 23.783235 O
atom 16.415300 11.891530 22.783235 H
atom 16.415300 14.864413 23.783235 O
atom 16.415300 14.864413 22.783235 H
