# 
# This is the geometry file that corresponds to the current relaxation step.
# If you do not want this file to be written, set the "write_restart_geometry" flag to .false.
#  aims_uuid : F53FB2CA-165F-4CE1-A6A0-28FFC81F6750                                
# 
lattice_vector      9.52903252      0.08141462     -0.00574260
lattice_vector      0.08143105      9.52898258     -0.00571023
lattice_vector     -0.04423942     -0.04415250      5.93302107
atom_frac      -0.01461130     -0.01450250      0.04086298 Ti
atom_frac       0.23207813      0.23210040      0.22027325 Ti
atom_frac       0.14288232      0.14289259     -0.05128545 O
atom_frac       0.36426320      0.36426757      0.11952871 O
atom_frac       0.08403152      0.39014536      0.25707193 O
atom_frac       0.39012860      0.08402852      0.25715392 O
atom_frac       0.01379102      0.22996386      0.68616662 Ti
atom_frac       0.23013248      0.01377317      0.68623048 Ti
atom_frac       0.15016171      0.15016879      0.49226751 O
atom_frac       0.36048863      0.36055324      0.36836643 O
atom_frac       0.08940690      0.40528032      0.76438707 O
atom_frac       0.40560698      0.08932475      0.76402027 O
atom_frac      -0.00943127      0.49499414      0.01921516 Ti
atom_frac       0.24762833      0.76663421      0.26153771 Ti
atom_frac       0.15739870      0.64187439      0.02765048 O
atom_frac       0.34977411      0.84250826     -0.00024272 O
atom_frac       0.10903982      0.89954284      0.24309511 O
atom_frac       0.42101661      0.61644362      0.26607091 O
atom_frac       0.00490074      0.52107197      0.51114971 Ti
atom_frac       0.24658611      0.71621553      0.78044011 Ti
atom_frac       0.15658696      0.64692776      0.50615191 O
atom_frac       0.33256120      0.86128588      0.53465441 O
atom_frac       0.10468681      0.88732702      0.78846136 O
atom_frac       0.40044295      0.58770976      0.76165273 O
atom_frac       0.49494621     -0.00933716      0.01886911 Ti
atom_frac       0.76663643      0.24763852      0.26154377 Ti
atom_frac       0.64186044      0.15744860      0.02754694 O
atom_frac       0.84250292      0.34978112     -0.00025131 O
atom_frac       0.61647112      0.42104392      0.26610679 O
atom_frac       0.89953783      0.10903537      0.24307509 O
atom_frac       0.52101164      0.00489128      0.51142530 Ti
atom_frac       0.71623640      0.24659393      0.78036440 Ti
atom_frac       0.64688043      0.15655999      0.50610688 O
atom_frac       0.86135555      0.33255241      0.53466873 O
atom_frac       0.58775985      0.40048264      0.76159674 O
atom_frac       0.88730404      0.10466008      0.78837581 O
atom_frac       0.52147288      0.52144895      0.01819744 Ti
atom_frac       0.75283895      0.75281748      0.27558056 Ti
atom_frac       0.65539036      0.65545964      0.00435203 O
atom_frac       0.84568298      0.84579312      0.02182658 O
atom_frac       0.59827968      0.89951428      0.26367936 O
atom_frac       0.89953949      0.59827640      0.26355676 O
atom_frac       0.51309640      0.51305645      0.49572275 Ti
atom_frac       0.75812230      0.75818019      0.75482503 Ti
atom_frac       0.65458874      0.65451789      0.52149808 O
atom_frac       0.83907365      0.83905148      0.50942126 O
atom_frac       0.60435933      0.90556324      0.75970181 O
atom_frac       0.90550113      0.60443872      0.75982951 O
# 
# What follows is the current estimated Hessian matrix constructed by the BFGS algorithm.
# This is NOT the true Hessian matrix of the system.
# If you do not want this information here, switch it off using the "hessian_to_restart_geometry" keyword.
# 
trust_radius             2.9643083829
hessian_file
