lattice_vector 9.188000 0.000000 0.000000
lattice_vector 0.000000 9.188000 0.000000
lattice_vector 0.000000 0.000000 5.916000

atom_frac  0.000000  0.000000  0.000000  Ti
atom_frac  0.250000  0.250000  0.250000  Ti
atom_frac  0.152500  0.152500  0.152500  O
atom_frac  0.347500  0.347500  0.250000  O
atom_frac  0.152500  0.347500  0.250000  O
atom_frac  0.347500  0.152500  0.250000  O
atom_frac  0.000000  0.250000  0.750000  Ti
atom_frac  0.250000  0.000000  0.750000  Ti
atom_frac  0.152500  0.152500  0.500000  O
atom_frac  0.347500  0.347500  0.500000  O
atom_frac  0.152500  0.347500  0.750000  O
atom_frac  0.347500  0.152500  0.750000  O
atom_frac  0.000000  0.500000  0.000000  Ti
atom_frac  0.250000  0.750000  0.250000  Ti
atom_frac  0.152500  0.652500  0.000000  O
atom_frac  0.347500  0.847500  0.000000  O
atom_frac  0.152500  0.847500  0.250000  O
atom_frac  0.347500  0.652500  0.250000  O
atom_frac  0.000000  0.500000  0.500000  Ti
atom_frac  0.250000  0.750000  0.750000  Ti
atom_frac  0.152500  0.652500  0.500000  O
atom_frac  0.347500  0.847500  0.500000  O
atom_frac  0.152500  0.847500  0.750000  O
atom_frac  0.347500  0.652500  0.750000  O
atom_frac  0.500000  0.000000  0.000000  Ti
atom_frac  0.750000  0.250000  0.250000  Ti
atom_frac  0.652500  0.152500  0.000000  O
atom_frac  0.847500  0.347500  0.000000  O
atom_frac  0.652500  0.347500  0.250000  O
atom_frac  0.847500  0.152500  0.250000  O
atom_frac  0.500000  0.000000  0.500000  Ti
atom_frac  0.750000  0.250000  0.750000  Ti
atom_frac  0.652500  0.152500  0.500000  O
atom_frac  0.847500  0.347500  0.500000  O
atom_frac  0.652500  0.347500  0.750000  O
atom_frac  0.847500  0.152500  0.750000  O
atom_frac  0.500000  0.500000  0.000000  Ti
atom_frac  0.750000  0.750000  0.250000  Ti
atom_frac  0.652500  0.652500  0.000000  O
atom_frac  0.847500  0.847500  0.000000  O
atom_frac  0.652500  0.847500  0.250000  O
atom_frac  0.847500  0.652500  0.250000  O
atom_frac  0.500000  0.500000  0.500000  Ti
atom_frac  0.750000  0.750000  0.750000  Ti
atom_frac  0.652500  0.652500  0.500000  O
atom_frac  0.847500  0.847500  0.500000  O
atom_frac  0.652500  0.847500  0.750000  O
atom_frac  0.847500  0.652500  0.750000  O

