lattice_vector 6.566127 0.000000 0.000000
lattice_vector 0.000000 2.972883 0.000000
lattice_vector 0.000000 0.000000 22.332457

atom_frac 0.999994 0.000000 0.368597 O
atom_frac 0.305556 0.500000 0.425767 O
atom_frac 0.499997 0.000000 0.425768 Ti
atom_frac 0.999997 0.500000 0.425768 Ti
atom_frac 0.694439 0.500000 0.425769 O
atom_frac 0.000001 0.000000 0.482939 O
atom_frac 0.499991 0.000000 0.515613 F
atom_frac 0.805553 0.500000 0.572783 O
atom_frac 0.999995 0.000000 0.572784 Ti
atom_frac 0.499995 0.500000 0.572784 Ti
atom_frac 0.194436 0.500000 0.572786 O
atom_frac 0.499998 0.000000 0.629955 O
