lattice_vector 13.132253 0.000000 0.000000
lattice_vector 0.000000 5.945765 0.000000
lattice_vector 0.000000 0.000000 41.856174

atom 13.132253 0.000000 15.000000 Ti
atom 3.283063 1.486441 15.000000 Ti
atom 1.276729 1.486441 15.000029 O1
atom 3.283086 0.000000 16.276767 O
atom 6.566086 0.000000 17.006468 O
atom 2.006317 1.486441 18.283206 O
atom 3.283046 0.000000 18.283235 Ti
atom 6.566109 1.486441 18.283235 Ti
atom 4.559775 1.486441 18.283265 O
atom 0.000005 0.000000 19.560002 O
atom 3.283006 0.000000 20.289704 O
atom 5.289362 1.486441 21.566441 O
atom 6.566091 0.000000 21.566471 Ti
atom 3.283028 1.486441 21.566471 Ti
atom 1.276694 1.486441 21.566500 O
atom 3.283051 0.000000 22.843237 O
atom 6.566051 0.000000 23.572939 O
atom 2.006281 1.486441 24.849676 O
atom 3.283010 0.000000 24.849706 Ti
atom 6.566074 1.486441 24.849706 Ti
atom 4.559740 1.486441 24.849735 O
atom 6.566096 0.000000 26.126473 O
atom 3.282970 0.000000 26.856174 O
atom 13.132253 2.972883 15.000000 Ti
atom 3.283063 4.459324 15.000000 Ti
atom 1.276729 4.459324 15.000029 O
atom 3.283086 2.972883 16.276767 O
atom 6.566086 2.972883 17.006468 O
atom 2.006317 4.459324 18.283206 O
atom 3.283046 2.972883 18.283235 Ti
atom 6.566109 4.459324 18.283235 Ti
atom 4.559775 4.459324 18.283265 O
atom 0.000005 2.972883 19.560002 O
atom 3.283006 2.972883 20.289704 O
atom 5.289362 4.459324 21.566441 O
atom 6.566091 2.972883 21.566471 Ti
atom 3.283028 4.459324 21.566471 Ti
atom 1.276694 4.459324 21.566500 O
atom 3.283051 2.972883 22.843237 O
atom 6.566051 2.972883 23.572939 O
atom 2.006281 4.459324 24.849676 O
atom 3.283010 2.972883 24.849706 Ti
atom 6.566074 4.459324 24.849706 Ti
atom 4.559740 4.459324 24.849735 O
atom 6.566096 2.972883 26.126473 O
atom 3.282970 2.972883 26.856174 O
atom 6.566126 0.000000 15.000000 Ti
atom 9.849190 1.486441 15.000000 Ti
atom 7.842856 1.486441 15.000029 O
atom 9.849212 0.000000 16.276767 O
atom 13.132213 0.000000 17.006468 O
atom 8.572443 1.486441 18.283206 O
atom 9.849172 0.000000 18.283235 Ti
atom 13.132235 1.486441 18.283235 Ti
atom 11.125901 1.486441 18.283265 O
atom 6.566131 0.000000 19.560002 O
atom 9.849132 0.000000 20.289704 O
atom 11.855489 1.486441 21.566441 O
atom 13.132218 0.000000 21.566471 Ti
atom 9.849155 1.486441 21.566471 Ti
atom 7.842820 1.486441 21.566500 O
atom 9.849177 0.000000 22.843237 O
atom 13.132178 0.000000 23.572939 O
atom 8.572408 1.486441 24.849676 O
atom 9.849137 0.000000 24.849706 Ti
atom 13.132200 1.486441 24.849706 Ti
atom 11.125866 1.486441 24.849735 O
atom 13.132223 0.000000 26.126473 O
atom 9.849097 0.000000 26.856174 O
atom 6.566126 2.972883 15.000000 Ti
atom 9.849190 4.459324 15.000000 Ti
atom 7.842856 4.459324 15.000029 O
atom 9.849212 2.972883 16.276767 O
atom 13.132213 2.972883 17.006468 O
atom 8.572443 4.459324 18.283206 O
atom 9.849172 2.972883 18.283235 Ti
atom 13.132235 4.459324 18.283235 Ti
atom 11.125901 4.459324 18.283265 O
atom 6.566131 2.972883 19.560002 O
atom 9.849132 2.972883 20.289704 O
atom 11.855489 4.459324 21.566441 O
atom 13.132218 2.972883 21.566471 Ti
atom 9.849155 4.459324 21.566471 Ti
atom 7.842820 4.459324 21.566500 O
atom 9.849177 2.972883 22.843237 O
atom 13.132178 2.972883 23.572939 O
atom 8.572408 4.459324 24.849676 O
atom 9.849137 2.972883 24.849706 Ti
atom 13.132200 4.459324 24.849706 Ti
atom 11.125866 4.459324 24.849735 O
atom 13.132223 2.972883 26.126473 O
atom 9.849097 2.972883 26.856174 O
