# 
# This is the geometry file that corresponds to the current relaxation step.
# If you do not want this file to be written, set the "write_restart_geometry" flag to .false.
#  aims_uuid : 36AF7766-82C1-434C-A4E3-F0AACE111953                                
# 
lattice_vector      6.49689700      0.00000000      0.00000000
lattice_vector      0.00000000      2.95800000      0.00000000
lattice_vector      0.00000000      0.00000000     20.23000200
atom_frac       0.00001120     -0.00024765      0.36706073 Ti
atom_frac       0.49998870      0.49970779      0.35817493 Ti
atom_frac       0.19666043      0.49969744      0.34098914 O
atom_frac       0.80332594      0.49969765      0.34099161 O
atom_frac       0.49998587      0.50217791      0.43727393 O
atom_frac       0.00000441     -0.00020032      0.45286400 O
atom_frac       0.50001591     -0.00007874      0.56585101 Ti
atom_frac       0.00000006      0.49979764      0.54104206 Ti
atom_frac       0.69959227      0.49979613      0.54410053 O
atom_frac       0.30040854      0.49979611      0.54410086 O
atom_frac       0.00000022     -0.00020144      0.59233807 O
atom_frac       0.50000645      0.00005748      0.64865514 O
# 
# What follows is the current estimated Hessian matrix constructed by the BFGS algorithm.
# This is NOT the true Hessian matrix of the system.
# If you do not want this information here, switch it off using the "hessian_to_restart_geometry" keyword.
# 
trust_radius             0.0021558477
hessian_file
