# 
# This is the geometry file that corresponds to the current relaxation step.
# If you do not want this file to be written, set the "write_restart_geometry" flag to .false.
#  aims_uuid : 5B3E6158-A931-4332-AFA3-479FB7E3A9C1                                
# 
lattice_vector      4.61794928      0.00824963     -0.00000000
lattice_vector      0.00824965      4.61795020     -0.00000000
lattice_vector      0.00000000     -0.00000000      2.97176797
atom_frac      -0.00000000     -0.00000000      0.00000001 Ti
atom_frac       0.50000000      0.50000000      0.50000000 Ti
atom_frac       0.30554225      0.30554240     -0.00000000 O
atom_frac       0.69445775      0.69445760     -0.00000000 O
atom_frac       0.19448717      0.80551298      0.50000000 O
atom_frac       0.80551284      0.19448702      0.50000000 O
# 
# What follows is the current estimated Hessian matrix constructed by the BFGS algorithm.
# This is NOT the true Hessian matrix of the system.
# If you do not want this information here, switch it off using the "hessian_to_restart_geometry" keyword.
# 
trust_radius             0.0051955798
hessian_file
