lattice_vector 26.264506 0.000000 0.000000
lattice_vector 0.000000 23.783061 0.000000
lattice_vector 0.000000 0.000000 87.213082

atom 6.566086 0.000000 30.947200 O
atom 2.006317 1.486441 32.223938 O
atom 3.283046 0.000000 32.223967 Ti
atom 6.566109 1.486441 32.223967 Ti
atom 4.559775 1.486441 32.223996 O
atom 0.000005 0.000000 33.500734 O
atom 3.283006 0.000000 34.230436 O
atom 5.289362 1.486441 35.507173 O
atom 6.566091 0.000000 35.507202 Ti
atom 3.283028 1.486441 35.507202 Ti
atom 1.276694 1.486441 35.507232 O
atom 3.283051 0.000000 36.783969 O
atom 6.566051 0.000000 37.513671 O
atom 2.006281 1.486441 38.790408 O
atom 3.283010 0.000000 38.790438 Ti
atom 6.566074 1.486441 38.790438 Ti
atom 4.559740 1.486441 38.790467 O
atom 6.566096 0.000000 40.067204 O
atom 3.282970 0.000000 40.796906 O
atom 5.289327 1.486441 42.073643 O
atom 6.566056 0.000000 42.073673 Ti
atom 3.282993 1.486441 42.073673 Ti
atom 1.276659 1.486441 42.073702 O
atom 3.283015 0.000000 43.350440 O
atom 6.566016 0.000000 44.080141 O
atom 2.006246 1.486441 45.356879 O
atom 3.282975 0.000000 45.356908 Ti
atom 6.566039 1.486441 45.356908 Ti
atom 4.559704 1.486441 45.356937 O
atom 6.566061 0.000000 46.633675 O
atom 3.282935 0.000000 47.363377 O
atom 5.289292 1.486441 48.640114 O
atom 6.566021 0.000000 48.640143 Ti
atom 3.282958 1.486441 48.640143 Ti
atom 1.276623 1.486441 48.640173 O
atom 3.282980 0.000000 49.916910 O
atom 6.565981 0.000000 50.646612 O
atom 2.006211 1.486441 51.923349 O
atom 3.282940 0.000000 51.923379 Ti
atom 6.566003 1.486441 51.923379 Ti
atom 4.559669 1.486441 51.923408 O
atom 6.566026 0.000000 53.200145 O
atom 3.282900 0.000000 53.929847 O
atom 5.289257 1.486441 55.206584 O
atom 6.565986 0.000000 55.206614 Ti
atom 3.282922 1.486441 55.206614 Ti
atom 1.276588 1.486441 55.206643 O
atom 3.282945 0.000000 56.483381 O
atom 3.282945 0.000000 57.483381 H
atom 6.565986 0.000000 57.206614 O
atom 6.565986 0.000000 58.206614 H
atom 6.566086 0.000000 29.947200 H
atom 3.283046 0.000000 30.223967 O
atom 3.283046 0.000000 29.223967 H
atom 6.566086 2.972883 30.947200 O
atom 2.006317 4.459324 32.223938 O
atom 3.283046 2.972883 32.223967 Ti
atom 6.566109 4.459324 32.223967 Ti
atom 4.559775 4.459324 32.223996 O
atom 0.000005 2.972883 33.500734 O
atom 3.283006 2.972883 34.230436 O
atom 5.289362 4.459324 35.507173 O
atom 6.566091 2.972883 35.507202 Ti
atom 3.283028 4.459324 35.507202 Ti
atom 1.276694 4.459324 35.507232 O
atom 3.283051 2.972883 36.783969 O
atom 6.566051 2.972883 37.513671 O
atom 2.006281 4.459324 38.790408 O
atom 3.283010 2.972883 38.790438 Ti
atom 6.566074 4.459324 38.790438 Ti
atom 4.559740 4.459324 38.790467 O
atom 6.566096 2.972883 40.067204 O
atom 3.282970 2.972883 40.796906 O
atom 5.289327 4.459324 42.073643 O
atom 6.566056 2.972883 42.073673 Ti
atom 3.282993 4.459324 42.073673 Ti
atom 1.276659 4.459324 42.073702 O
atom 3.283015 2.972883 43.350440 O
atom 6.566016 2.972883 44.080141 O
atom 2.006246 4.459324 45.356879 O
atom 3.282975 2.972883 45.356908 Ti
atom 6.566039 4.459324 45.356908 Ti
atom 4.559704 4.459324 45.356937 O
atom 6.566061 2.972883 46.633675 O
atom 3.282935 2.972883 47.363377 O
atom 5.289292 4.459324 48.640114 O
atom 6.566021 2.972883 48.640143 Ti
atom 3.282958 4.459324 48.640143 Ti
atom 1.276623 4.459324 48.640173 O
atom 3.282980 2.972883 49.916910 O
atom 6.565981 2.972883 50.646612 O
atom 2.006211 4.459324 51.923349 O
atom 3.282940 2.972883 51.923379 Ti
atom 6.566003 4.459324 51.923379 Ti
atom 4.559669 4.459324 51.923408 O
atom 6.566026 2.972883 53.200145 O
atom 3.282900 2.972883 53.929847 O
atom 5.289257 4.459324 55.206584 O
atom 6.565986 2.972883 55.206614 Ti
atom 3.282922 4.459324 55.206614 Ti
atom 1.276588 4.459324 55.206643 O
atom 3.282945 2.972883 56.483381 O
atom 3.282945 2.972883 57.483381 H
atom 6.565986 2.972883 57.206614 O
atom 6.565986 2.972883 58.206614 H
atom 6.566086 2.972883 29.947200 H
atom 3.283046 2.972883 30.223967 O
atom 3.283046 2.972883 29.223967 H
atom 6.566086 5.945765 30.947200 O
atom 2.006317 7.432207 32.223938 O
atom 3.283046 5.945765 32.223967 Ti
atom 6.566109 7.432207 32.223967 Ti
atom 4.559775 7.432207 32.223996 O
atom 0.000005 5.945765 33.500734 O
atom 3.283006 5.945765 34.230436 O
atom 5.289362 7.432207 35.507173 O
atom 6.566091 5.945765 35.507202 Ti
atom 3.283028 7.432207 35.507202 Ti
atom 1.276694 7.432207 35.507232 O
atom 3.283051 5.945765 36.783969 O
atom 6.566051 5.945765 37.513671 O
atom 2.006281 7.432207 38.790408 O
atom 3.283010 5.945765 38.790438 Ti
atom 6.566074 7.432207 38.790438 Ti
atom 4.559740 7.432207 38.790467 O
atom 6.566096 5.945765 40.067204 O
atom 3.282970 5.945765 40.796906 O
atom 5.289327 7.432207 42.073643 O
atom 6.566056 5.945765 42.073673 Ti
atom 3.282993 7.432207 42.073673 Ti
atom 1.276659 7.432207 42.073702 O
atom 3.283015 5.945765 43.350440 O
atom 6.566016 5.945765 44.080141 O
atom 2.006246 7.432207 45.356879 O
atom 3.282975 5.945765 45.356908 Ti
atom 6.566039 7.432207 45.356908 Ti
atom 4.559704 7.432207 45.356937 O
atom 6.566061 5.945765 46.633675 O
atom 3.282935 5.945765 47.363377 O
atom 5.289292 7.432207 48.640114 O
atom 6.566021 5.945765 48.640143 Ti
atom 3.282958 7.432207 48.640143 Ti
atom 1.276623 7.432207 48.640173 O
atom 3.282980 5.945765 49.916910 O
atom 6.565981 5.945765 50.646612 O
atom 2.006211 7.432207 51.923349 O
atom 3.282940 5.945765 51.923379 Ti
atom 6.566003 7.432207 51.923379 Ti
atom 4.559669 7.432207 51.923408 O
atom 6.566026 5.945765 53.200145 O
atom 3.282900 5.945765 53.929847 O
atom 5.289257 7.432207 55.206584 O
atom 6.565986 5.945765 55.206614 Ti
atom 3.282922 7.432207 55.206614 Ti
atom 1.276588 7.432207 55.206643 O
atom 3.282945 5.945765 56.483381 O
atom 3.282945 5.945765 57.483381 H
atom 6.565986 5.945765 57.206614 O
atom 6.565986 5.945765 58.206614 H
atom 6.566086 5.945765 29.947200 H
atom 3.283046 5.945765 30.223967 O
atom 3.283046 5.945765 29.223967 H
atom 6.566086 8.918648 30.947200 O
atom 2.006317 10.405089 32.223938 O
atom 3.283046 8.918648 32.223967 Ti
atom 6.566109 10.405089 32.223967 Ti
atom 4.559775 10.405089 32.223996 O
atom 0.000005 8.918648 33.500734 O
atom 3.283006 8.918648 34.230436 O
atom 5.289362 10.405089 35.507173 O
atom 6.566091 8.918648 35.507202 Ti
atom 3.283028 10.405089 35.507202 Ti
atom 1.276694 10.405089 35.507232 O
atom 3.283051 8.918648 36.783969 O
atom 6.566051 8.918648 37.513671 O
atom 2.006281 10.405089 38.790408 O
atom 3.283010 8.918648 38.790438 Ti
atom 6.566074 10.405089 38.790438 Ti
atom 4.559740 10.405089 38.790467 O
atom 6.566096 8.918648 40.067204 O
atom 3.282970 8.918648 40.796906 O
atom 5.289327 10.405089 42.073643 O
atom 6.566056 8.918648 42.073673 Ti
atom 3.282993 10.405089 42.073673 Ti
atom 1.276659 10.405089 42.073702 O
atom 3.283015 8.918648 43.350440 O
atom 6.566016 8.918648 44.080141 O
atom 2.006246 10.405089 45.356879 O
atom 3.282975 8.918648 45.356908 Ti
atom 6.566039 10.405089 45.356908 Ti
atom 4.559704 10.405089 45.356937 O
atom 6.566061 8.918648 46.633675 O
atom 3.282935 8.918648 47.363377 O
atom 5.289292 10.405089 48.640114 O
atom 6.566021 8.918648 48.640143 Ti
atom 3.282958 10.405089 48.640143 Ti
atom 1.276623 10.405089 48.640173 O
atom 3.282980 8.918648 49.916910 O
atom 6.565981 8.918648 50.646612 O
atom 2.006211 10.405089 51.923349 O
atom 3.282940 8.918648 51.923379 Ti
atom 6.566003 10.405089 51.923379 Ti
atom 4.559669 10.405089 51.923408 O
atom 6.566026 8.918648 53.200145 O
atom 3.282900 8.918648 53.929847 O
atom 5.289257 10.405089 55.206584 O
atom 6.565986 8.918648 55.206614 Ti
atom 3.282922 10.405089 55.206614 Ti
atom 1.276588 10.405089 55.206643 O
atom 3.282945 8.918648 56.483381 O
atom 3.282945 8.918648 57.483381 H
atom 6.565986 8.918648 57.206614 O
atom 6.565986 8.918648 58.206614 H
atom 6.566086 8.918648 29.947200 H
atom 3.283046 8.918648 30.223967 O
atom 3.283046 8.918648 29.223967 H
atom 6.566086 11.891531 30.947200 O
atom 2.006317 13.377972 32.223938 O
atom 3.283046 11.891531 32.223967 Ti
atom 6.566109 13.377972 32.223967 Ti
atom 4.559775 13.377972 32.223996 O
atom 0.000005 11.891531 33.500734 O
atom 3.283006 11.891531 34.230436 O
atom 5.289362 13.377972 35.507173 O
atom 6.566091 11.891531 35.507202 Ti
atom 3.283028 13.377972 35.507202 Ti
atom 1.276694 13.377972 35.507232 O
atom 3.283051 11.891531 36.783969 O
atom 6.566051 11.891531 37.513671 O
atom 2.006281 13.377972 38.790408 O
atom 3.283010 11.891531 38.790438 Ti
atom 6.566074 13.377972 38.790438 Ti
atom 4.559740 13.377972 38.790467 O
atom 6.566096 11.891531 40.067204 O
atom 3.282970 11.891531 40.796906 O
atom 5.289327 13.377972 42.073643 O
atom 6.566056 11.891531 42.073673 Ti
atom 3.282993 13.377972 42.073673 Ti
atom 1.276659 13.377972 42.073702 O
atom 3.283015 11.891531 43.350440 O
atom 6.566016 11.891531 44.080141 O
atom 2.006246 13.377972 45.356879 O
atom 3.282975 11.891531 45.356908 Ti
atom 6.566039 13.377972 45.356908 Ti
atom 4.559704 13.377972 45.356937 O
atom 6.566061 11.891531 46.633675 O
atom 3.282935 11.891531 47.363377 O
atom 5.289292 13.377972 48.640114 O
atom 6.566021 11.891531 48.640143 Ti
atom 3.282958 13.377972 48.640143 Ti
atom 1.276623 13.377972 48.640173 O
atom 3.282980 11.891531 49.916910 O
atom 6.565981 11.891531 50.646612 O
atom 2.006211 13.377972 51.923349 O
atom 3.282940 11.891531 51.923379 Ti
atom 6.566003 13.377972 51.923379 Ti
atom 4.559669 13.377972 51.923408 O
atom 6.566026 11.891531 53.200145 O
atom 3.282900 11.891531 53.929847 O
atom 5.289257 13.377972 55.206584 O
atom 6.565986 11.891531 55.206614 Ti
atom 3.282922 13.377972 55.206614 Ti
atom 1.276588 13.377972 55.206643 O
atom 3.282945 11.891531 56.483381 O
atom 3.282945 11.891531 57.483381 H
atom 6.565986 11.891531 57.206614 O
atom 6.565986 11.891531 58.206614 H
atom 6.566086 11.891531 29.947200 H
atom 3.283046 11.891531 30.223967 O
atom 3.283046 11.891531 29.223967 H
atom 6.566086 14.864413 30.947200 O
atom 2.006317 16.350855 32.223938 O
atom 3.283046 14.864413 32.223967 Ti
atom 6.566109 16.350855 32.223967 Ti
atom 4.559775 16.350855 32.223996 O
atom 0.000005 14.864413 33.500734 O
atom 3.283006 14.864413 34.230436 O
atom 5.289362 16.350855 35.507173 O
atom 6.566091 14.864413 35.507202 Ti
atom 3.283028 16.350855 35.507202 Ti
atom 1.276694 16.350855 35.507232 O
atom 3.283051 14.864413 36.783969 O
atom 6.566051 14.864413 37.513671 O
atom 2.006281 16.350855 38.790408 O
atom 3.283010 14.864413 38.790438 Ti
atom 6.566074 16.350855 38.790438 Ti
atom 4.559740 16.350855 38.790467 O
atom 6.566096 14.864413 40.067204 O
atom 3.282970 14.864413 40.796906 O
atom 5.289327 16.350855 42.073643 O
atom 6.566056 14.864413 42.073673 Ti
atom 3.282993 16.350855 42.073673 Ti
atom 1.276659 16.350855 42.073702 O
atom 3.283015 14.864413 43.350440 O
atom 6.566016 14.864413 44.080141 O
atom 2.006246 16.350855 45.356879 O
atom 3.282975 14.864413 45.356908 Ti
atom 6.566039 16.350855 45.356908 Ti
atom 4.559704 16.350855 45.356937 O
atom 6.566061 14.864413 46.633675 O
atom 3.282935 14.864413 47.363377 O
atom 5.289292 16.350855 48.640114 O
atom 6.566021 14.864413 48.640143 Ti
atom 3.282958 16.350855 48.640143 Ti
atom 1.276623 16.350855 48.640173 O
atom 3.282980 14.864413 49.916910 O
atom 6.565981 14.864413 50.646612 O
atom 2.006211 16.350855 51.923349 O
atom 3.282940 14.864413 51.923379 Ti
atom 6.566003 16.350855 51.923379 Ti
atom 4.559669 16.350855 51.923408 O
atom 6.566026 14.864413 53.200145 O
atom 3.282900 14.864413 53.929847 O
atom 5.289257 16.350855 55.206584 O
atom 6.565986 14.864413 55.206614 Ti
atom 3.282922 16.350855 55.206614 Ti
atom 1.276588 16.350855 55.206643 O
atom 3.282945 14.864413 56.483381 O
atom 3.282945 14.864413 57.483381 H
atom 6.565986 14.864413 57.206614 O
atom 6.565986 14.864413 58.206614 H
atom 6.566086 14.864413 29.947200 H
atom 3.283046 14.864413 30.223967 O
atom 3.283046 14.864413 29.223967 H
atom 6.566086 17.837296 30.947200 O
atom 2.006317 19.323737 32.223938 O
atom 3.283046 17.837296 32.223967 Ti
atom 6.566109 19.323737 32.223967 Ti
atom 4.559775 19.323737 32.223996 O
atom 0.000005 17.837296 33.500734 O
atom 3.283006 17.837296 34.230436 O
atom 5.289362 19.323737 35.507173 O
atom 6.566091 17.837296 35.507202 Ti
atom 3.283028 19.323737 35.507202 Ti
atom 1.276694 19.323737 35.507232 O
atom 3.283051 17.837296 36.783969 O
atom 6.566051 17.837296 37.513671 O
atom 2.006281 19.323737 38.790408 O
atom 3.283010 17.837296 38.790438 Ti
atom 6.566074 19.323737 38.790438 Ti
atom 4.559740 19.323737 38.790467 O
atom 6.566096 17.837296 40.067204 O
atom 3.282970 17.837296 40.796906 O
atom 5.289327 19.323737 42.073643 O
atom 6.566056 17.837296 42.073673 Ti
atom 3.282993 19.323737 42.073673 Ti
atom 1.276659 19.323737 42.073702 O
atom 3.283015 17.837296 43.350440 O
atom 6.566016 17.837296 44.080141 O
atom 2.006246 19.323737 45.356879 O
atom 3.282975 17.837296 45.356908 Ti
atom 6.566039 19.323737 45.356908 Ti
atom 4.559704 19.323737 45.356937 O
atom 6.566061 17.837296 46.633675 O
atom 3.282935 17.837296 47.363377 O
atom 5.289292 19.323737 48.640114 O
atom 6.566021 17.837296 48.640143 Ti
atom 3.282958 19.323737 48.640143 Ti
atom 1.276623 19.323737 48.640173 O
atom 3.282980 17.837296 49.916910 O
atom 6.565981 17.837296 50.646612 O
atom 2.006211 19.323737 51.923349 O
atom 3.282940 17.837296 51.923379 Ti
atom 6.566003 19.323737 51.923379 Ti
atom 4.559669 19.323737 51.923408 O
atom 6.566026 17.837296 53.200145 O
atom 3.282900 17.837296 53.929847 O
atom 5.289257 19.323737 55.206584 O
atom 6.565986 17.837296 55.206614 Ti
atom 3.282922 19.323737 55.206614 Ti
atom 1.276588 19.323737 55.206643 O
atom 3.282945 17.837296 56.483381 O
atom 3.282945 17.837296 57.483381 H
atom 6.565986 17.837296 57.206614 O
atom 6.565986 17.837296 58.206614 H
atom 6.566086 17.837296 29.947200 H
atom 3.283046 17.837296 30.223967 O
atom 3.283046 17.837296 29.223967 H
atom 6.566086 20.810179 30.947200 O
atom 2.006317 22.296620 32.223938 O
atom 3.283046 20.810179 32.223967 Ti
atom 6.566109 22.296620 32.223967 Ti
atom 4.559775 22.296620 32.223996 O
atom 0.000005 20.810179 33.500734 O
atom 3.283006 20.810179 34.230436 O
atom 5.289362 22.296620 35.507173 O
atom 6.566091 20.810179 35.507202 Ti
atom 3.283028 22.296620 35.507202 Ti
atom 1.276694 22.296620 35.507232 O
atom 3.283051 20.810179 36.783969 O
atom 6.566051 20.810179 37.513671 O
atom 2.006281 22.296620 38.790408 O
atom 3.283010 20.810179 38.790438 Ti
atom 6.566074 22.296620 38.790438 Ti
atom 4.559740 22.296620 38.790467 O
atom 6.566096 20.810179 40.067204 O
atom 3.282970 20.810179 40.796906 O
atom 5.289327 22.296620 42.073643 O
atom 6.566056 20.810179 42.073673 Ti
atom 3.282993 22.296620 42.073673 Ti
atom 1.276659 22.296620 42.073702 O
atom 3.283015 20.810179 43.350440 O
atom 6.566016 20.810179 44.080141 O
atom 2.006246 22.296620 45.356879 O
atom 3.282975 20.810179 45.356908 Ti
atom 6.566039 22.296620 45.356908 Ti
atom 4.559704 22.296620 45.356937 O
atom 6.566061 20.810179 46.633675 O
atom 3.282935 20.810179 47.363377 O
atom 5.289292 22.296620 48.640114 O
atom 6.566021 20.810179 48.640143 Ti
atom 3.282958 22.296620 48.640143 Ti
atom 1.276623 22.296620 48.640173 O
atom 3.282980 20.810179 49.916910 O
atom 6.565981 20.810179 50.646612 O
atom 2.006211 22.296620 51.923349 O
atom 3.282940 20.810179 51.923379 Ti
atom 6.566003 22.296620 51.923379 Ti
atom 4.559669 22.296620 51.923408 O
atom 6.566026 20.810179 53.200145 O
atom 3.282900 20.810179 53.929847 O
atom 5.289257 22.296620 55.206584 O
atom 6.565986 20.810179 55.206614 Ti
atom 3.282922 22.296620 55.206614 Ti
atom 1.276588 22.296620 55.206643 O
atom 3.282945 20.810179 56.483381 O
atom 3.282945 20.810179 57.483381 H
atom 6.565986 20.810179 57.206614 O
atom 6.565986 20.810179 58.206614 H
atom 6.566086 20.810179 29.947200 H
atom 3.283046 20.810179 30.223967 O
atom 3.283046 20.810179 29.223967 H
atom 13.132213 0.000000 30.947200 O
atom 8.572443 1.486441 32.223938 O
atom 9.849172 0.000000 32.223967 Ti
atom 13.132235 1.486441 32.223967 Ti
atom 11.125901 1.486441 32.223996 O
atom 6.566131 0.000000 33.500734 O
atom 9.849132 0.000000 34.230436 O
atom 11.855489 1.486441 35.507173 O
atom 13.132218 0.000000 35.507202 Ti
atom 9.849155 1.486441 35.507202 Ti
atom 7.842820 1.486441 35.507232 O
atom 9.849177 0.000000 36.783969 O
atom 13.132178 0.000000 37.513671 O
atom 8.572408 1.486441 38.790408 O
atom 9.849137 0.000000 38.790438 Ti
atom 13.132200 1.486441 38.790438 Ti
atom 11.125866 1.486441 38.790467 O
atom 13.132223 0.000000 40.067204 O
atom 9.849097 0.000000 40.796906 O
atom 11.855454 1.486441 42.073643 O
atom 13.132183 0.000000 42.073673 Ti
atom 9.849119 1.486441 42.073673 Ti
atom 7.842785 1.486441 42.073702 O
atom 9.849142 0.000000 43.350440 O
atom 13.132143 0.000000 44.080141 O
atom 8.572373 1.486441 45.356879 O
atom 9.849102 0.000000 45.356908 Ti
atom 13.132165 1.486441 45.356908 Ti
atom 11.125831 1.486441 45.356937 O
atom 13.132188 0.000000 46.633675 O
atom 9.849062 0.000000 47.363377 O
atom 11.855418 1.486441 48.640114 O
atom 13.132147 0.000000 48.640143 Ti
atom 9.849084 1.486441 48.640143 Ti
atom 7.842750 1.486441 48.640173 O
atom 9.849107 0.000000 49.916910 O
atom 13.132107 0.000000 50.646612 O
atom 8.572338 1.486441 51.923349 O
atom 9.849067 0.000000 51.923379 Ti
atom 13.132130 1.486441 51.923379 Ti
atom 11.125796 1.486441 51.923408 O
atom 13.132152 0.000000 53.200145 O
atom 9.849026 0.000000 53.929847 O
atom 11.855383 1.486441 55.206584 O
atom 13.132112 0.000000 55.206614 Ti
atom 9.849049 1.486441 55.206614 Ti
atom 7.842715 1.486441 55.206643 O
atom 9.849071 0.000000 56.483381 O
atom 9.849072 0.000000 57.483381 H
atom 13.132113 0.000000 57.206614 O
atom 13.132113 0.000000 58.206614 H
atom 13.132213 0.000000 29.947200 H
atom 9.849173 0.000000 30.223967 O
atom 9.849173 0.000000 29.223967 H
atom 13.132213 2.972883 30.947200 O
atom 8.572443 4.459324 32.223938 O
atom 9.849172 2.972883 32.223967 Ti
atom 13.132235 4.459324 32.223967 Ti
atom 11.125901 4.459324 32.223996 O
atom 6.566131 2.972883 33.500734 O
atom 9.849132 2.972883 34.230436 O
atom 11.855489 4.459324 35.507173 O
atom 13.132218 2.972883 35.507202 Ti
atom 9.849155 4.459324 35.507202 Ti
atom 7.842820 4.459324 35.507232 O
atom 9.849177 2.972883 36.783969 O
atom 13.132178 2.972883 37.513671 O
atom 8.572408 4.459324 38.790408 O
atom 9.849137 2.972883 38.790438 Ti
atom 13.132200 4.459324 38.790438 Ti
atom 11.125866 4.459324 38.790467 O
atom 13.132223 2.972883 40.067204 O
atom 9.849097 2.972883 40.796906 O
atom 11.855454 4.459324 42.073643 O
atom 13.132183 2.972883 42.073673 Ti
atom 9.849119 4.459324 42.073673 Ti
atom 7.842785 4.459324 42.073702 O
atom 9.849142 2.972883 43.350440 O
atom 13.132143 2.972883 44.080141 O
atom 8.572373 4.459324 45.356879 O
atom 9.849102 2.972883 45.356908 Ti
atom 13.132165 4.459324 45.356908 Ti
atom 11.125831 4.459324 45.356937 O
atom 13.132188 2.972883 46.633675 O
atom 9.849062 2.972883 47.363377 O
atom 11.855418 4.459324 48.640114 O
atom 13.132147 2.972883 48.640143 Ti
atom 9.849084 4.459324 48.640143 Ti
atom 7.842750 4.459324 48.640173 O
atom 9.849107 2.972883 49.916910 O
atom 13.132107 2.972883 50.646612 O
atom 8.572338 4.459324 51.923349 O
atom 9.849067 2.972883 51.923379 Ti
atom 13.132130 4.459324 51.923379 Ti
atom 11.125796 4.459324 51.923408 O
atom 13.132152 2.972883 53.200145 O
atom 9.849026 2.972883 53.929847 O
atom 11.855383 4.459324 55.206584 O
atom 13.132112 2.972883 55.206614 Ti
atom 9.849049 4.459324 55.206614 Ti
atom 7.842715 4.459324 55.206643 O
atom 9.849071 2.972883 56.483381 O
atom 9.849072 2.972883 57.483381 H
atom 13.132113 2.972883 57.206614 O
atom 13.132113 2.972883 58.206614 H
atom 13.132213 2.972883 29.947200 H
atom 9.849173 2.972883 30.223967 O
atom 9.849173 2.972883 29.223967 H
atom 13.132213 5.945765 30.947200 O
atom 8.572443 7.432207 32.223938 O
atom 9.849172 5.945765 32.223967 Ti
atom 13.132235 7.432207 32.223967 Ti
atom 11.125901 7.432207 32.223996 O
atom 6.566131 5.945765 33.500734 O
atom 9.849132 5.945765 34.230436 O
atom 11.855489 7.432207 35.507173 O
atom 13.132218 5.945765 35.507202 Ti
atom 9.849155 7.432207 35.507202 Ti
atom 7.842820 7.432207 35.507232 O
atom 9.849177 5.945765 36.783969 O
atom 13.132178 5.945765 37.513671 O
atom 8.572408 7.432207 38.790408 O
atom 9.849137 5.945765 38.790438 Ti
atom 13.132200 7.432207 38.790438 Ti
atom 11.125866 7.432207 38.790467 O
atom 13.132223 5.945765 40.067204 O
atom 9.849097 5.945765 40.796906 O
atom 11.855454 7.432207 42.073643 O
atom 13.132183 5.945765 42.073673 Ti
atom 9.849119 7.432207 42.073673 Ti
atom 7.842785 7.432207 42.073702 O
atom 9.849142 5.945765 43.350440 O
atom 13.132143 5.945765 44.080141 O
atom 8.572373 7.432207 45.356879 O
atom 9.849102 5.945765 45.356908 Ti
atom 13.132165 7.432207 45.356908 Ti
atom 11.125831 7.432207 45.356937 O
atom 13.132188 5.945765 46.633675 O
atom 9.849062 5.945765 47.363377 O
atom 11.855418 7.432207 48.640114 O
atom 13.132147 5.945765 48.640143 Ti
atom 9.849084 7.432207 48.640143 Ti
atom 7.842750 7.432207 48.640173 O
atom 9.849107 5.945765 49.916910 O
atom 13.132107 5.945765 50.646612 O
atom 8.572338 7.432207 51.923349 O
atom 9.849067 5.945765 51.923379 Ti
atom 13.132130 7.432207 51.923379 Ti
atom 11.125796 7.432207 51.923408 O
atom 13.132152 5.945765 53.200145 O
atom 9.849026 5.945765 53.929847 O
atom 11.855383 7.432207 55.206584 O
atom 13.132112 5.945765 55.206614 Ti
atom 9.849049 7.432207 55.206614 Ti
atom 7.842715 7.432207 55.206643 O
atom 9.849071 5.945765 56.483381 O
atom 9.849072 5.945765 57.483381 H
atom 13.132113 5.945765 57.206614 O
atom 13.132113 5.945765 58.206614 H
atom 13.132213 5.945765 29.947200 H
atom 9.849173 5.945765 30.223967 O
atom 9.849173 5.945765 29.223967 H
atom 13.132213 8.918648 30.947200 O
atom 8.572443 10.405089 32.223938 O
atom 9.849172 8.918648 32.223967 Ti
atom 13.132235 10.405089 32.223967 Ti
atom 11.125901 10.405089 32.223996 O
atom 6.566131 8.918648 33.500734 O
atom 9.849132 8.918648 34.230436 O
atom 11.855489 10.405089 35.507173 O
atom 13.132218 8.918648 35.507202 Ti
atom 9.849155 10.405089 35.507202 Ti
atom 7.842820 10.405089 35.507232 O
atom 9.849177 8.918648 36.783969 O
atom 13.132178 8.918648 37.513671 O
atom 8.572408 10.405089 38.790408 O
atom 9.849137 8.918648 38.790438 Ti
atom 13.132200 10.405089 38.790438 Ti
atom 11.125866 10.405089 38.790467 O
atom 13.132223 8.918648 40.067204 O
atom 9.849097 8.918648 40.796906 O
atom 11.855454 10.405089 42.073643 O
atom 13.132183 8.918648 42.073673 Ti
atom 9.849119 10.405089 42.073673 Ti
atom 7.842785 10.405089 42.073702 O
atom 9.849142 8.918648 43.350440 O
atom 13.132143 8.918648 44.080141 O
atom 8.572373 10.405089 45.356879 O
atom 9.849102 8.918648 45.356908 Ti
atom 13.132165 10.405089 45.356908 Ti
atom 11.125831 10.405089 45.356937 O
atom 13.132188 8.918648 46.633675 O
atom 9.849062 8.918648 47.363377 O
atom 11.855418 10.405089 48.640114 O
atom 13.132147 8.918648 48.640143 Ti
atom 9.849084 10.405089 48.640143 Ti
atom 7.842750 10.405089 48.640173 O
atom 9.849107 8.918648 49.916910 O
atom 13.132107 8.918648 50.646612 O
atom 8.572338 10.405089 51.923349 O
atom 9.849067 8.918648 51.923379 Ti
atom 13.132130 10.405089 51.923379 Ti
atom 11.125796 10.405089 51.923408 O
atom 13.132152 8.918648 53.200145 O
atom 9.849026 8.918648 53.929847 O
atom 11.855383 10.405089 55.206584 O
atom 13.132112 8.918648 55.206614 Ti
atom 9.849049 10.405089 55.206614 Ti
atom 7.842715 10.405089 55.206643 O
atom 9.849071 8.918648 56.483381 O
atom 9.849072 8.918648 57.483381 H
atom 13.132113 8.918648 57.206614 O
atom 13.132113 8.918648 58.206614 H
atom 13.132213 8.918648 29.947200 H
atom 9.849173 8.918648 30.223967 O
atom 9.849173 8.918648 29.223967 H
atom 13.132213 11.891531 30.947200 O
atom 8.572443 13.377972 32.223938 O
atom 9.849172 11.891531 32.223967 Ti
atom 13.132235 13.377972 32.223967 Ti
atom 11.125901 13.377972 32.223996 O
atom 6.566131 11.891531 33.500734 O
atom 9.849132 11.891531 34.230436 O
atom 11.855489 13.377972 35.507173 O
atom 13.132218 11.891531 35.507202 Ti
atom 9.849155 13.377972 35.507202 Ti
atom 7.842820 13.377972 35.507232 O
atom 9.849177 11.891531 36.783969 O
atom 13.132178 11.891531 37.513671 O
atom 8.572408 13.377972 38.790408 O
atom 9.849137 11.891531 38.790438 Ti
atom 13.132200 13.377972 38.790438 Ti
atom 11.125866 13.377972 38.790467 O
atom 13.132223 11.891531 40.067204 O
atom 9.849097 11.891531 40.796906 O
atom 11.855454 13.377972 42.073643 O
atom 13.132183 11.891531 42.073673 Ti
atom 9.849119 13.377972 42.073673 Ti
atom 7.842785 13.377972 42.073702 O
atom 9.849142 11.891531 43.350440 O
atom 13.132143 11.891531 44.080141 O
atom 8.572373 13.377972 45.356879 O
atom 9.849102 11.891531 45.356908 Ti
atom 13.132165 13.377972 45.356908 Ti
atom 11.125831 13.377972 45.356937 O
atom 13.132188 11.891531 46.633675 O
atom 9.849062 11.891531 47.363377 O
atom 11.855418 13.377972 48.640114 O
atom 13.132147 11.891531 48.640143 Ti
atom 9.849084 13.377972 48.640143 Ti
atom 7.842750 13.377972 48.640173 O
atom 9.849107 11.891531 49.916910 O
atom 13.132107 11.891531 50.646612 O
atom 8.572338 13.377972 51.923349 O
atom 9.849067 11.891531 51.923379 Ti
atom 13.132130 13.377972 51.923379 Ti
atom 11.125796 13.377972 51.923408 O
atom 13.132152 11.891531 53.200145 O
atom 9.849026 11.891531 53.929847 O
atom 11.855383 13.377972 55.206584 O
atom 13.132112 11.891531 55.206614 Ti
atom 9.849049 13.377972 55.206614 Ti
atom 7.842715 13.377972 55.206643 O
atom 9.849071 11.891531 56.483381 O
atom 9.849072 11.891531 57.483381 H
atom 13.132113 11.891531 57.206614 O
atom 13.132113 11.891531 58.206614 H
atom 13.132213 11.891531 29.947200 H
atom 9.849173 11.891531 30.223967 O
atom 9.849173 11.891531 29.223967 H
atom 13.132213 14.864413 30.947200 O
atom 8.572443 16.350855 32.223938 O
atom 9.849172 14.864413 32.223967 Ti
atom 13.132235 16.350855 32.223967 Ti
atom 11.125901 16.350855 32.223996 O
atom 6.566131 14.864413 33.500734 O
atom 9.849132 14.864413 34.230436 O
atom 11.855489 16.350855 35.507173 O
atom 13.132218 14.864413 35.507202 Ti
atom 9.849155 16.350855 35.507202 Ti
atom 7.842820 16.350855 35.507232 O
atom 9.849177 14.864413 36.783969 O
atom 13.132178 14.864413 37.513671 O
atom 8.572408 16.350855 38.790408 O
atom 9.849137 14.864413 38.790438 Ti
atom 13.132200 16.350855 38.790438 Ti
atom 11.125866 16.350855 38.790467 O
atom 13.132223 14.864413 40.067204 O
atom 9.849097 14.864413 40.796906 O
atom 11.855454 16.350855 42.073643 O
atom 13.132183 14.864413 42.073673 Ti
atom 9.849119 16.350855 42.073673 Ti
atom 7.842785 16.350855 42.073702 O
atom 9.849142 14.864413 43.350440 O
atom 13.132143 14.864413 44.080141 O
atom 8.572373 16.350855 45.356879 O
atom 9.849102 14.864413 45.356908 Ti
atom 13.132165 16.350855 45.356908 Ti
atom 11.125831 16.350855 45.356937 O
atom 13.132188 14.864413 46.633675 O
atom 9.849062 14.864413 47.363377 O
atom 11.855418 16.350855 48.640114 O
atom 13.132147 14.864413 48.640143 Ti
atom 9.849084 16.350855 48.640143 Ti
atom 7.842750 16.350855 48.640173 O
atom 9.849107 14.864413 49.916910 O
atom 13.132107 14.864413 50.646612 O
atom 8.572338 16.350855 51.923349 O
atom 9.849067 14.864413 51.923379 Ti
atom 13.132130 16.350855 51.923379 Ti
atom 11.125796 16.350855 51.923408 O
atom 13.132152 14.864413 53.200145 O
atom 9.849026 14.864413 53.929847 O
atom 11.855383 16.350855 55.206584 O
atom 13.132112 14.864413 55.206614 Ti
atom 9.849049 16.350855 55.206614 Ti
atom 7.842715 16.350855 55.206643 O
atom 9.849071 14.864413 56.483381 O
atom 9.849072 14.864413 57.483381 H
atom 13.132113 14.864413 57.206614 O
atom 13.132113 14.864413 58.206614 H
atom 13.132213 14.864413 29.947200 H
atom 9.849173 14.864413 30.223967 O
atom 9.849173 14.864413 29.223967 H
atom 13.132213 17.837296 30.947200 O
atom 8.572443 19.323737 32.223938 O
atom 9.849172 17.837296 32.223967 Ti
atom 13.132235 19.323737 32.223967 Ti
atom 11.125901 19.323737 32.223996 O
atom 6.566131 17.837296 33.500734 O
atom 9.849132 17.837296 34.230436 O
atom 11.855489 19.323737 35.507173 O
atom 13.132218 17.837296 35.507202 Ti
atom 9.849155 19.323737 35.507202 Ti
atom 7.842820 19.323737 35.507232 O
atom 9.849177 17.837296 36.783969 O
atom 13.132178 17.837296 37.513671 O
atom 8.572408 19.323737 38.790408 O
atom 9.849137 17.837296 38.790438 Ti
atom 13.132200 19.323737 38.790438 Ti
atom 11.125866 19.323737 38.790467 O
atom 13.132223 17.837296 40.067204 O
atom 9.849097 17.837296 40.796906 O
atom 11.855454 19.323737 42.073643 O
atom 13.132183 17.837296 42.073673 Ti
atom 9.849119 19.323737 42.073673 Ti
atom 7.842785 19.323737 42.073702 O
atom 9.849142 17.837296 43.350440 O
atom 13.132143 17.837296 44.080141 O
atom 8.572373 19.323737 45.356879 O
atom 9.849102 17.837296 45.356908 Ti
atom 13.132165 19.323737 45.356908 Ti
atom 11.125831 19.323737 45.356937 O
atom 13.132188 17.837296 46.633675 O
atom 9.849062 17.837296 47.363377 O
atom 11.855418 19.323737 48.640114 O
atom 13.132147 17.837296 48.640143 Ti
atom 9.849084 19.323737 48.640143 Ti
atom 7.842750 19.323737 48.640173 O
atom 9.849107 17.837296 49.916910 O
atom 13.132107 17.837296 50.646612 O
atom 8.572338 19.323737 51.923349 O
atom 9.849067 17.837296 51.923379 Ti
atom 13.132130 19.323737 51.923379 Ti
atom 11.125796 19.323737 51.923408 O
atom 13.132152 17.837296 53.200145 O
atom 9.849026 17.837296 53.929847 O
atom 11.855383 19.323737 55.206584 O
atom 13.132112 17.837296 55.206614 Ti
atom 9.849049 19.323737 55.206614 Ti
atom 7.842715 19.323737 55.206643 O
atom 9.849071 17.837296 56.483381 O
atom 9.849072 17.837296 57.483381 H
atom 13.132113 17.837296 57.206614 O
atom 13.132113 17.837296 58.206614 H
atom 13.132213 17.837296 29.947200 H
atom 9.849173 17.837296 30.223967 O
atom 9.849173 17.837296 29.223967 H
atom 13.132213 20.810179 30.947200 O
atom 8.572443 22.296620 32.223938 O
atom 9.849172 20.810179 32.223967 Ti
atom 13.132235 22.296620 32.223967 Ti
atom 11.125901 22.296620 32.223996 O
atom 6.566131 20.810179 33.500734 O
atom 9.849132 20.810179 34.230436 O
atom 11.855489 22.296620 35.507173 O
atom 13.132218 20.810179 35.507202 Ti
atom 9.849155 22.296620 35.507202 Ti
atom 7.842820 22.296620 35.507232 O
atom 9.849177 20.810179 36.783969 O
atom 13.132178 20.810179 37.513671 O
atom 8.572408 22.296620 38.790408 O
atom 9.849137 20.810179 38.790438 Ti
atom 13.132200 22.296620 38.790438 Ti
atom 11.125866 22.296620 38.790467 O
atom 13.132223 20.810179 40.067204 O