lattice_vector 19.698380 0.000000 0.000000
lattice_vector 0.000000 8.918648 0.000000
lattice_vector 0.000000 0.000000 63.422645

atom 19.698379 0.000000 22.500000 Ti
atom 3.283063 1.486441 22.500000 Ti
atom 1.276729 1.486441 22.500029 O1
atom 3.283086 0.000000 23.776767 O
atom 6.566086 0.000000 24.506468 O
atom 2.006317 1.486441 25.783206 O
atom 3.283046 0.000000 25.783235 Ti
atom 6.566109 1.486441 25.783235 Ti
atom 4.559775 1.486441 25.783265 O
atom 0.000005 0.000000 27.060002 O
atom 3.283006 0.000000 27.789704 O
atom 5.289362 1.486441 29.066441 O
atom 6.566091 0.000000 29.066471 Ti
atom 3.283028 1.486441 29.066471 Ti
atom 1.276694 1.486441 29.066500 O
atom 3.283051 0.000000 30.343237 O
atom 6.566051 0.000000 31.072939 O
atom 2.006281 1.486441 32.349676 O
atom 3.283010 0.000000 32.349706 Ti
atom 6.566074 1.486441 32.349706 Ti
atom 4.559740 1.486441 32.349735 O
atom 6.566096 0.000000 33.626473 O
atom 3.282970 0.000000 34.356174 O
atom 5.289327 1.486441 35.632912 O
atom 6.566056 0.000000 35.632941 Ti
atom 3.282993 1.486441 35.632941 Ti
atom 1.276659 1.486441 35.632970 O
atom 3.283015 0.000000 36.909708 O
atom 6.566016 0.000000 37.639409 O
atom 2.006246 1.486441 38.916147 O
atom 3.282975 0.000000 38.916176 Ti
atom 6.566039 1.486441 38.916176 Ti
atom 4.559704 1.486441 38.916206 O
atom 6.566061 0.000000 40.192943 O
atom 3.282935 0.000000 40.922645 O
atom 19.698379 2.972883 22.500000 Ti
atom 3.283063 4.459324 22.500000 Ti
atom 1.276729 4.459324 22.500029 O
atom 3.283086 2.972883 23.776767 O
atom 6.566086 2.972883 24.506468 O
atom 2.006317 4.459324 25.783206 O
atom 3.283046 2.972883 25.783235 Ti
atom 6.566109 4.459324 25.783235 Ti
atom 4.559775 4.459324 25.783265 O
atom 0.000005 2.972883 27.060002 O
atom 3.283006 2.972883 27.789704 O
atom 5.289362 4.459324 29.066441 O
atom 6.566091 2.972883 29.066471 Ti
atom 3.283028 4.459324 29.066471 Ti
atom 1.276694 4.459324 29.066500 O
atom 3.283051 2.972883 30.343237 O
atom 6.566051 2.972883 31.072939 O
atom 2.006281 4.459324 32.349676 O
atom 3.283010 2.972883 32.349706 Ti
atom 6.566074 4.459324 32.349706 Ti
atom 4.559740 4.459324 32.349735 O
atom 6.566096 2.972883 33.626473 O
atom 3.282970 2.972883 34.356174 O
atom 5.289327 4.459324 35.632912 O
atom 6.566056 2.972883 35.632941 Ti
atom 3.282993 4.459324 35.632941 Ti
atom 1.276659 4.459324 35.632970 O
atom 3.283015 2.972883 36.909708 O
atom 6.566016 2.972883 37.639409 O
atom 2.006246 4.459324 38.916147 O
atom 3.282975 2.972883 38.916176 Ti
atom 6.566039 4.459324 38.916176 Ti
atom 4.559704 4.459324 38.916206 O
atom 6.566061 2.972883 40.192943 O
atom 3.282935 2.972883 40.922645 O
atom 19.698379 5.945765 22.500000 Ti
atom 3.283063 7.432207 22.500000 Ti
atom 1.276729 7.432207 22.500029 O
atom 3.283086 5.945765 23.776767 O
atom 6.566086 5.945765 24.506468 O
atom 2.006317 7.432207 25.783206 O
atom 3.283046 5.945765 25.783235 Ti
atom 6.566109 7.432207 25.783235 Ti
atom 4.559775 7.432207 25.783265 O
atom 0.000005 5.945765 27.060002 O
atom 3.283006 5.945765 27.789704 O
atom 5.289362 7.432207 29.066441 O
atom 6.566091 5.945765 29.066471 Ti
atom 3.283028 7.432207 29.066471 Ti
atom 1.276694 7.432207 29.066500 O
atom 3.283051 5.945765 30.343237 O
atom 6.566051 5.945765 31.072939 O
atom 2.006281 7.432207 32.349676 O
atom 3.283010 5.945765 32.349706 Ti
atom 6.566074 7.432207 32.349706 Ti
atom 4.559740 7.432207 32.349735 O
atom 6.566096 5.945765 33.626473 O
atom 3.282970 5.945765 34.356174 O
atom 5.289327 7.432207 35.632912 O
atom 6.566056 5.945765 35.632941 Ti
atom 3.282993 7.432207 35.632941 Ti
atom 1.276659 7.432207 35.632970 O
atom 3.283015 5.945765 36.909708 O
atom 6.566016 5.945765 37.639409 O
atom 2.006246 7.432207 38.916147 O
atom 3.282975 5.945765 38.916176 Ti
atom 6.566039 7.432207 38.916176 Ti
atom 4.559704 7.432207 38.916206 O
atom 6.566061 5.945765 40.192943 O
atom 3.282935 5.945765 40.922645 O
atom 6.566126 0.000000 22.500000 Ti
atom 9.849190 1.486441 22.500000 Ti
atom 7.842856 1.486441 22.500029 O
atom 9.849212 0.000000 23.776767 O
atom 13.132213 0.000000 24.506468 O
atom 8.572443 1.486441 25.783206 O
atom 9.849172 0.000000 25.783235 Ti
atom 13.132235 1.486441 25.783235 Ti
atom 11.125901 1.486441 25.783265 O
atom 6.566131 0.000000 27.060002 O
atom 9.849132 0.000000 27.789704 O
atom 11.855489 1.486441 29.066441 O
atom 13.132218 0.000000 29.066471 Ti
atom 9.849155 1.486441 29.066471 Ti
atom 7.842820 1.486441 29.066500 O
atom 9.849177 0.000000 30.343237 O
atom 13.132178 0.000000 31.072939 O
atom 8.572408 1.486441 32.349676 O
atom 9.849137 0.000000 32.349706 Ti
atom 13.132200 1.486441 32.349706 Ti
atom 11.125866 1.486441 32.349735 O
atom 13.132223 0.000000 33.626473 O
atom 9.849097 0.000000 34.356174 O
atom 11.855454 1.486441 35.632912 O
atom 13.132183 0.000000 35.632941 Ti
atom 9.849119 1.486441 35.632941 Ti
atom 7.842785 1.486441 35.632970 O
atom 9.849142 0.000000 36.909708 O
atom 13.132143 0.000000 37.639409 O
atom 8.572373 1.486441 38.916147 O
atom 9.849102 0.000000 38.916176 Ti
atom 13.132165 1.486441 38.916176 Ti
atom 11.125831 1.486441 38.916206 O
atom 13.132188 0.000000 40.192943 O
atom 9.849062 0.000000 40.922645 O
atom 6.566126 2.972883 22.500000 Ti
atom 9.849190 4.459324 22.500000 Ti
atom 7.842856 4.459324 22.500029 O
atom 9.849212 2.972883 23.776767 O
atom 13.132213 2.972883 24.506468 O
atom 8.572443 4.459324 25.783206 O
atom 9.849172 2.972883 25.783235 Ti
atom 13.132235 4.459324 25.783235 Ti
atom 11.125901 4.459324 25.783265 O
atom 6.566131 2.972883 27.060002 O
atom 9.849132 2.972883 27.789704 O
atom 11.855489 4.459324 29.066441 O
atom 13.132218 2.972883 29.066471 Ti
atom 9.849155 4.459324 29.066471 Ti
atom 7.842820 4.459324 29.066500 O
atom 9.849177 2.972883 30.343237 O
atom 13.132178 2.972883 31.072939 O
atom 8.572408 4.459324 32.349676 O
atom 9.849137 2.972883 32.349706 Ti
atom 13.132200 4.459324 32.349706 Ti
atom 11.125866 4.459324 32.349735 O
atom 13.132223 2.972883 33.626473 O
atom 9.849097 2.972883 34.356174 O
atom 11.855454 4.459324 35.632912 O
atom 13.132183 2.972883 35.632941 Ti
atom 9.849119 4.459324 35.632941 Ti
atom 7.842785 4.459324 35.632970 O
atom 9.849142 2.972883 36.909708 O
atom 13.132143 2.972883 37.639409 O
atom 8.572373 4.459324 38.916147 O
atom 9.849102 2.972883 38.916176 Ti
atom 13.132165 4.459324 38.916176 Ti
atom 11.125831 4.459324 38.916206 O
atom 13.132188 2.972883 40.192943 O
atom 9.849062 2.972883 40.922645 O
atom 6.566126 5.945765 22.500000 Ti
atom 9.849190 7.432207 22.500000 Ti
atom 7.842856 7.432207 22.500029 O
atom 9.849212 5.945765 23.776767 O
atom 13.132213 5.945765 24.506468 O
atom 8.572443 7.432207 25.783206 O
atom 9.849172 5.945765 25.783235 Ti
atom 13.132235 7.432207 25.783235 Ti
atom 11.125901 7.432207 25.783265 O
atom 6.566131 5.945765 27.060002 O
atom 9.849132 5.945765 27.789704 O
atom 11.855489 7.432207 29.066441 O
atom 13.132218 5.945765 29.066471 Ti
atom 9.849155 7.432207 29.066471 Ti
atom 7.842820 7.432207 29.066500 O
atom 9.849177 5.945765 30.343237 O
atom 13.132178 5.945765 31.072939 O
atom 8.572408 7.432207 32.349676 O
atom 9.849137 5.945765 32.349706 Ti
atom 13.132200 7.432207 32.349706 Ti
atom 11.125866 7.432207 32.349735 O
atom 13.132223 5.945765 33.626473 O
atom 9.849097 5.945765 34.356174 O
atom 11.855454 7.432207 35.632912 O
atom 13.132183 5.945765 35.632941 Ti
atom 9.849119 7.432207 35.632941 Ti
atom 7.842785 7.432207 35.632970 O
atom 9.849142 5.945765 36.909708 O
atom 13.132143 5.945765 37.639409 O
atom 8.572373 7.432207 38.916147 O
atom 9.849102 5.945765 38.916176 Ti
atom 13.132165 7.432207 38.916176 Ti
atom 11.125831 7.432207 38.916206 O
atom 13.132188 5.945765 40.192943 O
atom 9.849062 5.945765 40.922645 O
atom 13.132253 0.000000 22.500000 Ti
atom 16.415316 1.486441 22.500000 Ti
atom 14.408982 1.486441 22.500029 O
atom 16.415339 0.000000 23.776767 O
atom 19.698339 0.000000 24.506468 O
atom 15.138570 1.486441 25.783206 O
atom 16.415299 0.000000 25.783235 Ti
atom 19.698362 1.486441 25.783235 Ti
atom 17.692028 1.486441 25.783265 O
atom 13.132258 0.000000 27.060002 O
atom 16.415259 0.000000 27.789704 O
atom 18.421615 1.486441 29.066441 O
atom 19.698344 0.000000 29.066471 Ti
atom 16.415281 1.486441 29.066471 Ti
atom 14.408947 1.486441 29.066500 O
atom 16.415304 0.000000 30.343237 O
atom 19.698304 0.000000 31.072939 O
atom 15.138534 1.486441 32.349676 O
atom 16.415263 0.000000 32.349706 Ti
atom 19.698327 1.486441 32.349706 Ti
atom 17.691993 1.486441 32.349735 O
atom 19.698349 0.000000 33.626473 O
atom 16.415223 0.000000 34.356174 O
atom 18.421580 1.486441 35.632912 O
atom 19.698309 0.000000 35.632941 Ti
atom 16.415246 1.486441 35.632941 Ti
atom 14.408912 1.486441 35.632970 O
atom 16.415268 0.000000 36.909708 O
atom 19.698269 0.000000 37.639409 O
atom 15.138499 1.486441 38.916147 O
atom 16.415228 0.000000 38.916176 Ti
atom 19.698292 1.486441 38.916176 Ti
atom 17.691957 1.486441 38.916206 O
atom 19.698314 0.000000 40.192943 O
atom 16.415188 0.000000 40.922645 O
atom 13.132253 2.972883 22.500000 Ti
atom 16.415316 4.459324 22.500000 Ti
atom 14.408982 4.459324 22.500029 O
atom 16.415339 2.972883 23.776767 O
atom 19.698339 2.972883 24.506468 O
atom 15.138570 4.459324 25.783206 O
atom 16.415299 2.972883 25.783235 Ti
atom 19.698362 4.459324 25.783235 Ti
atom 17.692028 4.459324 25.783265 O
atom 13.132258 2.972883 27.060002 O
atom 16.415259 2.972883 27.789704 O
atom 18.421615 4.459324 29.066441 O
atom 19.698344 2.972883 29.066471 Ti
atom 16.415281 4.459324 29.066471 Ti
atom 14.408947 4.459324 29.066500 O
atom 16.415304 2.972883 30.343237 O
atom 19.698304 2.972883 31.072939 O
atom 15.138534 4.459324 32.349676 O
atom 16.415263 2.972883 32.349706 Ti
atom 19.698327 4.459324 32.349706 Ti
atom 17.691993 4.459324 32.349735 O
atom 19.698349 2.972883 33.626473 O
atom 16.415223 2.972883 34.356174 O
atom 18.421580 4.459324 35.632912 O
atom 19.698309 2.972883 35.632941 Ti
atom 16.415246 4.459324 35.632941 Ti
atom 14.408912 4.459324 35.632970 O
atom 16.415268 2.972883 36.909708 O
atom 19.698269 2.972883 37.639409 O
atom 15.138499 4.459324 38.916147 O
atom 16.415228 2.972883 38.916176 Ti
atom 19.698292 4.459324 38.916176 Ti
atom 17.691957 4.459324 38.916206 O
atom 19.698314 2.972883 40.192943 O
atom 16.415188 2.972883 40.922645 O
atom 13.132253 5.945765 22.500000 Ti
atom 16.415316 7.432207 22.500000 Ti
atom 14.408982 7.432207 22.500029 O
atom 16.415339 5.945765 23.776767 O
atom 19.698339 5.945765 24.506468 O
atom 15.138570 7.432207 25.783206 O
atom 16.415299 5.945765 25.783235 Ti
atom 19.698362 7.432207 25.783235 Ti
atom 17.692028 7.432207 25.783265 O
atom 13.132258 5.945765 27.060002 O
atom 16.415259 5.945765 27.789704 O
atom 18.421615 7.432207 29.066441 O
atom 19.698344 5.945765 29.066471 Ti
atom 16.415281 7.432207 29.066471 Ti
atom 14.408947 7.432207 29.066500 O
atom 16.415304 5.945765 30.343237 O
atom 19.698304 5.945765 31.072939 O
atom 15.138534 7.432207 32.349676 O
atom 16.415263 5.945765 32.349706 Ti
atom 19.698327 7.432207 32.349706 Ti
atom 17.691993 7.432207 32.349735 O
atom 19.698349 5.945765 33.626473 O
atom 16.415223 5.945765 34.356174 O
atom 18.421580 7.432207 35.632912 O
atom 19.698309 5.945765 35.632941 Ti
atom 16.415246 7.432207 35.632941 Ti
atom 14.408912 7.432207 35.632970 O
atom 16.415268 5.945765 36.909708 O
atom 19.698269 5.945765 37.639409 O
atom 15.138499 7.432207 38.916147 O
atom 16.415228 5.945765 38.916176 Ti
atom 19.698292 7.432207 38.916176 Ti
atom 17.691957 7.432207 38.916206 O
atom 19.698314 5.945765 40.192943 O
atom 16.415188 5.945765 40.922645 O
