lattice_vector 6.566127 0.000000 0.000000
lattice_vector 0.000000 5.945766 0.000000
lattice_vector 0.000000 0.000000 22.332457

atom 6.566088 0.000000 8.231677 O
atom 2.006320 1.486442 9.508423 O
atom 3.283044 0.000000 9.508446 Ti
atom 6.566107 1.486442 9.508446 Ti
atom 4.559775 1.486442 9.508468 O
atom 0.000007 0.000000 10.785214 O
atom 3.283004 0.000000 11.514905 O
atom 5.289363 1.486442 12.791652 O
atom 6.566094 0.000000 12.791674 Ti
atom 3.283031 1.486442 12.791674 Ti
atom 1.276691 1.486442 12.791719 O
atom 3.283050 0.000000 14.068443 O
atom 6.566088 2.972883 8.231677 O
atom 2.006320 4.459325 9.508423 O
atom 3.283044 2.972883 9.508446 Ti
atom 6.566107 4.459325 9.508446 Ti
atom 4.559775 4.459325 9.508468 O
atom 0.000007 2.972883 10.785214 O
atom 3.283004 2.972883 11.514905 O1
atom 5.289363 4.459325 12.791652 O
atom 6.566094 2.972883 12.791674 Ti
atom 3.283031 4.459325 12.791674 Ti
atom 1.276691 4.459325 12.791719 O
atom 3.283050 2.972883 14.068443 O
atom 3.283050 2.972883 15.068443 H
atom 3.283050 0.000000 15.068443 H
atom 6.566088 0.000000 7.231677 H
atom 6.566088 2.972883 7.231677 H
atom 6.566088 2.972883 14.791674 O
atom 6.566088 0.000000 14.791674 O
atom 6.566088 2.972883 15.791674 H
atom 6.566088 0.000000 15.791674 H
atom 3.283050 2.972883 7.508446 O
atom 3.283050 0.000000 7.508446 O
atom 3.283050 2.972883 6.508446 H
atom 3.283050 0.000000 6.508446 H
