# 
# This is the geometry file that corresponds to the current relaxation step.
# If you do not want this file to be written, set the "write_restart_geometry" flag to .false.
#  aims_uuid : 7AB3ED57-E72B-4E15-A2EA-35597C8C9D99                                
# 
lattice_vector      5.85966434     -0.68586534      0.23759220
lattice_vector     -0.51532769      7.17392454     -0.03299632
lattice_vector      0.67995121      0.14774521      2.94708236
atom_frac      -0.05088060     -0.13136395     -0.19164247 Ti
atom_frac       0.39765849      0.61936688      0.60065152 Ti
atom_frac       0.29238506      0.49997123      0.16126638 O
atom_frac       0.65979736      0.70304206     -0.03602804 O
atom_frac       0.25597247      0.82170179      0.65803031 O
atom_frac       0.93974789     -0.00739644      0.30474455 O
# 
# What follows is the current estimated Hessian matrix constructed by the BFGS algorithm.
# This is NOT the true Hessian matrix of the system.
# If you do not want this information here, switch it off using the "hessian_to_restart_geometry" keyword.
# 
trust_radius             0.0083599499
hessian_file
