lattice_vector 6.496897  0.000000  0.000000
lattice_vector 0.000000  2.958000  0.000000
lattice_vector 0.000000  0.000000  20.230002

atom_frac 0.000000  0.000000  0.370736  Ti
atom_frac 0.500000  0.500000  0.370736  Ti
atom_frac 0.305000  0.500000  0.370736  O
atom_frac 0.695000  0.500000  0.370736  O
atom_frac 0.500000  0.500000  0.433361  O
atom_frac 0.000000  0.000000  0.468688  O
atom_frac 0.500000  0.000000  0.531312  Ti
atom_frac 0.000000  0.500000  0.531312  Ti
atom_frac 0.805000  0.500000  0.531312  O
atom_frac 0.195000  0.500000  0.531312  O
atom_frac 0.000000  0.000000  0.593937  O
atom_frac 0.500000  0.000000  0.629264  O

