# 
# This is the geometry file that corresponds to the current relaxation step.
# If you do not want this file to be written, set the "write_restart_geometry" flag to .false.
#  aims_uuid : B1C57575-F1C3-423D-ACE4-F1F6BB9331C6                                
# 
lattice_vector      9.28618613     -0.00001112     -0.00000000
lattice_vector     -0.00001103      9.28625589      0.00000000
lattice_vector     -0.00000001     -0.00000001      5.94542855
atom_frac      -0.00000073     -0.00000390      0.00009315 Ti
atom_frac       0.24998999      0.24998855      0.24999541 Ti
atom_frac       0.15277764      0.15277889     -0.00000396 O
atom_frac       0.34722431      0.34721781     -0.00000649 O
atom_frac       0.09721623      0.40276989      0.25000385 O
atom_frac       0.40276785      0.09721039      0.24998620 O
atom_frac      -0.00000075     -0.00000388      0.50010772 Ti
atom_frac       0.25001594      0.25001192      0.74999550 Ti
atom_frac       0.15277762      0.15277891      0.49998775 O
atom_frac       0.34722429      0.34721781      0.50000894 O
atom_frac       0.09723776      0.40278949      0.75000395 O
atom_frac       0.40278904      0.09723029      0.74998624 O
atom_frac      -0.00002311      0.49998032      0.00007825 Ti
atom_frac       0.24999580      0.74999105      0.24999542 Ti
atom_frac       0.15278548      0.65278772     -0.00000661 O
atom_frac       0.34723388      0.84722457     -0.00000349 O
atom_frac       0.09722239      0.90277256      0.24998622 O
atom_frac       0.40277152      0.59721202      0.25000384 O
atom_frac      -0.00002310      0.49998032      0.50006201 Ti
atom_frac       0.24997035      0.74996780      0.74999546 Ti
atom_frac       0.15278551      0.65278770      0.50000906 O
atom_frac       0.34723392      0.84722457      0.49998727 O
atom_frac       0.09720076      0.90275354      0.74998620 O
atom_frac       0.40275043      0.59719247      0.75000393 O
atom_frac       0.49998012     -0.00002334      0.00009513 Ti
atom_frac       0.74996643      0.24997141      0.24999544 Ti
atom_frac       0.65278273      0.15279014     -0.00000356 O
atom_frac       0.84722932      0.34722908     -0.00000664 O
atom_frac       0.59719612      0.40275610      0.25000386 O
atom_frac       0.90274736      0.09719708      0.24998624 O
atom_frac       0.49998012     -0.00002335      0.50010580 Ti
atom_frac       0.74999190      0.24999468      0.74999548 Ti
atom_frac       0.65278269      0.15279015      0.49998733 O
atom_frac       0.84722930      0.34722910      0.50000907 O
atom_frac       0.59721724      0.40277567      0.75000393 O
atom_frac       0.90276900      0.09721613      0.74998621 O
atom_frac       0.49999623      0.49999960      0.00007303 Ti
atom_frac       0.75001296      0.75001461      0.24999540 Ti
atom_frac       0.65277393      0.65278245     -0.00000648 O
atom_frac       0.84722229      0.84721938     -0.00000399 O
atom_frac       0.59723567      0.90279302      0.24998619 O
atom_frac       0.90278528      0.59723210      0.25000384 O
atom_frac       0.49999625      0.49999959      0.50006725 Ti
atom_frac       0.74998698      0.74999120      0.74999549 Ti
atom_frac       0.65277395      0.65278244      0.50000890 O
atom_frac       0.84722231      0.84721936      0.49998776 O
atom_frac       0.59721443      0.90277306      0.74998623 O
atom_frac       0.90276373      0.59721248      0.75000394 O
# 
# What follows is the current estimated Hessian matrix constructed by the BFGS algorithm.
# This is NOT the true Hessian matrix of the system.
# If you do not want this information here, switch it off using the "hessian_to_restart_geometry" keyword.
# 
trust_radius             0.0014368818
hessian_file
