# 
# This is the geometry file that corresponds to the current relaxation step.
# If you do not want this file to be written, set the "write_restart_geometry" flag to .false.
#  aims_uuid : FE155A5E-302C-4892-AD00-DE4884E563F8                                
# 
lattice_vector      4.64334779      0.00011703      0.00000000
lattice_vector      0.00011724      4.64337242     -0.00000000
lattice_vector      0.00000000     -0.00000000      2.97252923
atom_frac       0.00000000     -0.00000000      0.00000002 Ti
atom_frac       0.50000000      0.50000000      0.50000000 Ti
atom_frac       0.30556074      0.30556969     -0.00000000 O
atom_frac       0.69443926      0.69443031     -0.00000000 O
atom_frac       0.19445103      0.80555795      0.50000000 O
atom_frac       0.80554897      0.19444205      0.50000000 O
# 
# What follows is the current estimated Hessian matrix constructed by the BFGS algorithm.
# This is NOT the true Hessian matrix of the system.
# If you do not want this information here, switch it off using the "hessian_to_restart_geometry" keyword.
# 
trust_radius             0.8000000119
hessian_file
