# 
# This is the geometry file that corresponds to the current relaxation step.
# If you do not want this file to be written, set the "write_restart_geometry" flag to .false.
#  aims_uuid : 13FC39F9-E60B-4E78-AFE4-84C413A2D035                                
# 
lattice_vector      4.64056480      0.00013643      0.00000000
lattice_vector      0.00013663      4.64058829     -0.00000000
lattice_vector      0.00000000     -0.00000000      2.97572683
atom_frac       0.00000000     -0.00000000     -0.00000002 Ti
atom_frac       0.50000000      0.50000000      0.50000000 Ti
atom_frac       0.30554425      0.30555317      0.00000000 O
atom_frac       0.69445575      0.69444683      0.00000000 O
atom_frac       0.19446637      0.80554258      0.50000000 O
atom_frac       0.80553363      0.19445742      0.50000000 O
# 
# What follows is the current estimated Hessian matrix constructed by the BFGS algorithm.
# This is NOT the true Hessian matrix of the system.
# If you do not want this information here, switch it off using the "hessian_to_restart_geometry" keyword.
# 
trust_radius             0.8000000119
hessian_file
